    2    2    5    2
  0.2560000E+03  0.8000000E-09  0.8000000E-09  0.8000000E-09  0.5000000E-15
  1.000000000000000E-004
  CAR 
 O2 dimer in a box                       
     12      1     12
 
  0.0000000E+00  0.0000000E+00  0.0000000E+00  0.1000000E+01
    1      -32.309841    -31.083735   1.000000   1.000000
    2      -20.457293    -18.660716   1.000000   1.000000
    3      -13.215603    -12.288765   1.000000   1.000000
    4      -13.060748    -11.217259   1.000000   1.000000
    5      -13.060748    -11.217259   1.000000   1.000000
    6       -6.752316     -4.478319   1.000000   0.000000
    7       -6.752316     -4.478319   1.000000   0.000000
    8       -0.408440     -0.271822   0.000000   0.000000
    9        1.349211      1.729312   0.000000   0.000000
   10        1.766808      1.942287   0.000000   0.000000
   11        1.766808      1.942287   0.000000   0.000000
   12        1.978584      2.041778   0.000000   0.000000
