O2 molecule in a box                    
   1.00000000000000     
     8.0000000000000000    0.0000000000000000    0.0000000000000000
     0.0000000000000000    8.0000000000000000    0.0000000000000000
     0.0000000000000000    0.0000000000000000    8.0000000000000000
   O 
     2
Direct
  0.0000000000000000  0.0000000000000000 -0.0009121317104907
  0.0000000000000000  0.0000000000000000  0.1534121317104941
 
  0.00000000E+00  0.00000000E+00  0.00000000E+00
  0.00000000E+00  0.00000000E+00  0.00000000E+00
