   2   2   0   0
  0.2560000E+03  0.8000000E-09  0.8000000E-09  0.8000000E-09  0.5000000E-15
  1.000000000000000E-004
  CAR 
 O2 dimer in a box                       
      4.04177825    -34.30984149  301     -5.79980667      1.00000000
    -34.310  0.0000E+00  0.0000E+00  0.0000E+00  0.0000E+00
    -34.182  0.0000E+00  0.0000E+00  0.0000E+00  0.0000E+00
    -34.054  0.0000E+00  0.0000E+00  0.0000E+00  0.0000E+00
    -33.926  0.0000E+00  0.0000E+00  0.0000E+00  0.0000E+00
    -33.798  0.0000E+00  0.0000E+00  0.0000E+00  0.0000E+00
    -33.671  0.0000E+00  0.0000E+00  0.0000E+00  0.0000E+00
    -33.543  0.0000E+00  0.0000E+00  0.0000E+00  0.0000E+00
    -33.415  0.4342E-14  0.0000E+00  0.5551E-15  0.0000E+00
    -33.287  0.3774E-11  0.0000E+00  0.4830E-12  0.0000E+00
    -33.159  0.1479E-08  0.0000E+00  0.1895E-09  0.0000E+00
    -33.031  0.2606E-06  0.0000E+00  0.3351E-07  0.0000E+00
    -32.904  0.2074E-04  0.0000E+00  0.2686E-05  0.0000E+00
    -32.776  0.7498E-03  0.0000E+00  0.9854E-04  0.0000E+00
    -32.648  0.1238E-01  0.0000E+00  0.1682E-02  0.0000E+00
    -32.520  0.9408E-01  0.0000E+00  0.1371E-01  0.0000E+00
    -32.392  0.3308E+00  0.0000E+00  0.5600E-01  0.0000E+00
    -32.264  0.5412E+00  0.8685E-16  0.1252E+00  0.1110E-16
    -32.137  0.4127E+00  0.7590E-13  0.1779E+00  0.9714E-14
    -32.009  0.1465E+00  0.4779E-10  0.1967E+00  0.6119E-11
    -31.881  0.2411E-01  0.1350E-07  0.1998E+00  0.1732E-08
    -31.753  0.1829E-02  0.1718E-05  0.2000E+00  0.2213E-06
    -31.625  0.6353E-04  0.9894E-04  0.2000E+00  0.1287E-04
    -31.497  0.1004E-05  0.2594E-02  0.2000E+00  0.3445E-03
    -31.370  0.7171E-08  0.3116E-01  0.2000E+00  0.4328E-02
    -31.242  0.2307E-10  0.1726E+00  0.2000E+00  0.2640E-01
    -31.114  0.3335E-13  0.4437E+00  0.2000E+00  0.8312E-01
    -30.986  0.0000E+00  0.5312E+00  0.2000E+00  0.1510E+00
    -30.858  0.0000E+00  0.2964E+00  0.2000E+00  0.1889E+00
    -30.730  0.0000E+00  0.7689E-01  0.2000E+00  0.1988E+00
    -30.603  0.0000E+00  0.9227E-02  0.2000E+00  0.1999E+00
    -30.475  0.0000E+00  0.5089E-03  0.2000E+00  0.2000E+00
    -30.347  0.0000E+00  0.1282E-04  0.2000E+00  0.2000E+00
    -30.219  0.0000E+00  0.1465E-06  0.2000E+00  0.2000E+00
    -30.091  0.0000E+00  0.7555E-09  0.2000E+00  0.2000E+00
    -29.963  0.0000E+00  0.1752E-11  0.2000E+00  0.2000E+00
    -29.835  0.0000E+00  0.1737E-14  0.2000E+00  0.2000E+00
    -29.708  0.0000E+00  0.0000E+00  0.2000E+00  0.2000E+00
    -29.580  0.0000E+00  0.0000E+00  0.2000E+00  0.2000E+00
    -29.452  0.0000E+00  0.0000E+00  0.2000E+00  0.2000E+00
    -29.324  0.0000E+00  0.0000E+00  0.2000E+00  0.2000E+00
    -29.196  0.0000E+00  0.0000E+00  0.2000E+00  0.2000E+00
    -29.068  0.0000E+00  0.0000E+00  0.2000E+00  0.2000E+00
    -28.941  0.0000E+00  0.0000E+00  0.2000E+00  0.2000E+00
    -28.813  0.0000E+00  0.0000E+00  0.2000E+00  0.2000E+00
    -28.685  0.0000E+00  0.0000E+00  0.2000E+00  0.2000E+00
    -28.557  0.0000E+00  0.0000E+00  0.2000E+00  0.2000E+00
    -28.429  0.0000E+00  0.0000E+00  0.2000E+00  0.2000E+00
    -28.301  0.0000E+00  0.0000E+00  0.2000E+00  0.2000E+00
    -28.174  0.0000E+00  0.0000E+00  0.2000E+00  0.2000E+00
    -28.046  0.0000E+00  0.0000E+00  0.2000E+00  0.2000E+00
    -27.918  0.0000E+00  0.0000E+00  0.2000E+00  0.2000E+00
    -27.790  0.0000E+00  0.0000E+00  0.2000E+00  0.2000E+00
    -27.662  0.0000E+00  0.0000E+00  0.2000E+00  0.2000E+00
    -27.534  0.0000E+00  0.0000E+00  0.2000E+00  0.2000E+00
    -27.407  0.0000E+00  0.0000E+00  0.2000E+00  0.2000E+00
    -27.279  0.0000E+00  0.0000E+00  0.2000E+00  0.2000E+00
    -27.151  0.0000E+00  0.0000E+00  0.2000E+00  0.2000E+00
    -27.023  0.0000E+00  0.0000E+00  0.2000E+00  0.2000E+00
    -26.895  0.0000E+00  0.0000E+00  0.2000E+00  0.2000E+00
    -26.767  0.0000E+00  0.0000E+00  0.2000E+00  0.2000E+00
    -26.640  0.0000E+00  0.0000E+00  0.2000E+00  0.2000E+00
    -26.512  0.0000E+00  0.0000E+00  0.2000E+00  0.2000E+00
    -26.384  0.0000E+00  0.0000E+00  0.2000E+00  0.2000E+00
    -26.256  0.0000E+00  0.0000E+00  0.2000E+00  0.2000E+00
    -26.128  0.0000E+00  0.0000E+00  0.2000E+00  0.2000E+00
    -26.000  0.0000E+00  0.0000E+00  0.2000E+00  0.2000E+00
    -25.872  0.0000E+00  0.0000E+00  0.2000E+00  0.2000E+00
    -25.745  0.0000E+00  0.0000E+00  0.2000E+00  0.2000E+00
    -25.617  0.0000E+00  0.0000E+00  0.2000E+00  0.2000E+00
    -25.489  0.0000E+00  0.0000E+00  0.2000E+00  0.2000E+00
    -25.361  0.0000E+00  0.0000E+00  0.2000E+00  0.2000E+00
    -25.233  0.0000E+00  0.0000E+00  0.2000E+00  0.2000E+00
    -25.105  0.0000E+00  0.0000E+00  0.2000E+00  0.2000E+00
    -24.978  0.0000E+00  0.0000E+00  0.2000E+00  0.2000E+00
    -24.850  0.0000E+00  0.0000E+00  0.2000E+00  0.2000E+00
    -24.722  0.0000E+00  0.0000E+00  0.2000E+00  0.2000E+00
    -24.594  0.0000E+00  0.0000E+00  0.2000E+00  0.2000E+00
    -24.466  0.0000E+00  0.0000E+00  0.2000E+00  0.2000E+00
    -24.338  0.0000E+00  0.0000E+00  0.2000E+00  0.2000E+00
    -24.211  0.0000E+00  0.0000E+00  0.2000E+00  0.2000E+00
    -24.083  0.0000E+00  0.0000E+00  0.2000E+00  0.2000E+00
    -23.955  0.0000E+00  0.0000E+00  0.2000E+00  0.2000E+00
    -23.827  0.0000E+00  0.0000E+00  0.2000E+00  0.2000E+00
    -23.699  0.0000E+00  0.0000E+00  0.2000E+00  0.2000E+00
    -23.571  0.0000E+00  0.0000E+00  0.2000E+00  0.2000E+00
    -23.444  0.0000E+00  0.0000E+00  0.2000E+00  0.2000E+00
    -23.316  0.0000E+00  0.0000E+00  0.2000E+00  0.2000E+00
    -23.188  0.0000E+00  0.0000E+00  0.2000E+00  0.2000E+00
    -23.060  0.0000E+00  0.0000E+00  0.2000E+00  0.2000E+00
    -22.932  0.0000E+00  0.0000E+00  0.2000E+00  0.2000E+00
    -22.804  0.0000E+00  0.0000E+00  0.2000E+00  0.2000E+00
    -22.677  0.0000E+00  0.0000E+00  0.2000E+00  0.2000E+00
    -22.549  0.0000E+00  0.0000E+00  0.2000E+00  0.2000E+00
    -22.421  0.0000E+00  0.0000E+00  0.2000E+00  0.2000E+00
    -22.293  0.0000E+00  0.0000E+00  0.2000E+00  0.2000E+00
    -22.165  0.0000E+00  0.0000E+00  0.2000E+00  0.2000E+00
    -22.037  0.0000E+00  0.0000E+00  0.2000E+00  0.2000E+00
    -21.909  0.0000E+00  0.0000E+00  0.2000E+00  0.2000E+00
    -21.782  0.0000E+00  0.0000E+00  0.2000E+00  0.2000E+00
    -21.654  0.0000E+00  0.0000E+00  0.2000E+00  0.2000E+00
    -21.526  0.3231E-13  0.0000E+00  0.2000E+00  0.2000E+00
    -21.398  0.2247E-10  0.0000E+00  0.2000E+00  0.2000E+00
    -21.270  0.7010E-08  0.0000E+00  0.2000E+00  0.2000E+00
    -21.142  0.9843E-06  0.0000E+00  0.2000E+00  0.2000E+00
    -21.015  0.6252E-04  0.0000E+00  0.2000E+00  0.2000E+00
    -20.887  0.1806E-02  0.0000E+00  0.2002E+00  0.2000E+00
    -20.759  0.2389E-01  0.0000E+00  0.2033E+00  0.2000E+00
    -20.631  0.1456E+00  0.0000E+00  0.2219E+00  0.2000E+00
    -20.503  0.4115E+00  0.0000E+00  0.2745E+00  0.2000E+00
    -20.375  0.5415E+00  0.0000E+00  0.3437E+00  0.2000E+00
    -20.248  0.3321E+00  0.0000E+00  0.3862E+00  0.2000E+00
    -20.120  0.9474E-01  0.0000E+00  0.3983E+00  0.2000E+00
    -19.992  0.1251E-01  0.0000E+00  0.3999E+00  0.2000E+00
    -19.864  0.7601E-03  0.0000E+00  0.4000E+00  0.2000E+00
    -19.736  0.2110E-04  0.2232E-13  0.4000E+00  0.2000E+00
    -19.608  0.2660E-06  0.1616E-10  0.4000E+00  0.2000E+00
    -19.481  0.1514E-08  0.5262E-08  0.4000E+00  0.2000E+00
    -19.353  0.3878E-11  0.7710E-06  0.4000E+00  0.2000E+00
    -19.225  0.4516E-14  0.5109E-04  0.4000E+00  0.2000E+00
    -19.097  0.0000E+00  0.1539E-02  0.4000E+00  0.2002E+00
    -18.969  0.0000E+00  0.2122E-01  0.4000E+00  0.2029E+00
    -18.841  0.0000E+00  0.1348E+00  0.4000E+00  0.2201E+00
    -18.714  0.0000E+00  0.3969E+00  0.4000E+00  0.2709E+00
    -18.586  0.0000E+00  0.5440E+00  0.4000E+00  0.3404E+00
    -18.458  0.0000E+00  0.3475E+00  0.4000E+00  0.3849E+00
    -18.330  0.0000E+00  0.1033E+00  0.4000E+00  0.3981E+00
    -18.202  0.0000E+00  0.1422E-01  0.4000E+00  0.3999E+00
    -18.074  0.0000E+00  0.9005E-03  0.4000E+00  0.4000E+00
    -17.946  0.0000E+00  0.2607E-04  0.4000E+00  0.4000E+00
    -17.819  0.0000E+00  0.3429E-06  0.4000E+00  0.4000E+00
    -17.691  0.0000E+00  0.2037E-08  0.4000E+00  0.4000E+00
    -17.563  0.0000E+00  0.5444E-11  0.4000E+00  0.4000E+00
    -17.435  0.0000E+00  0.6600E-14  0.4000E+00  0.4000E+00
    -17.307  0.0000E+00  0.0000E+00  0.4000E+00  0.4000E+00
    -17.179  0.0000E+00  0.0000E+00  0.4000E+00  0.4000E+00
    -17.052  0.0000E+00  0.0000E+00  0.4000E+00  0.4000E+00
    -16.924  0.0000E+00  0.0000E+00  0.4000E+00  0.4000E+00
    -16.796  0.0000E+00  0.0000E+00  0.4000E+00  0.4000E+00
    -16.668  0.0000E+00  0.0000E+00  0.4000E+00  0.4000E+00
    -16.540  0.0000E+00  0.0000E+00  0.4000E+00  0.4000E+00
    -16.412  0.0000E+00  0.0000E+00  0.4000E+00  0.4000E+00
    -16.285  0.0000E+00  0.0000E+00  0.4000E+00  0.4000E+00
    -16.157  0.0000E+00  0.0000E+00  0.4000E+00  0.4000E+00
    -16.029  0.0000E+00  0.0000E+00  0.4000E+00  0.4000E+00
    -15.901  0.0000E+00  0.0000E+00  0.4000E+00  0.4000E+00
    -15.773  0.0000E+00  0.0000E+00  0.4000E+00  0.4000E+00
    -15.645  0.0000E+00  0.0000E+00  0.4000E+00  0.4000E+00
    -15.518  0.0000E+00  0.0000E+00  0.4000E+00  0.4000E+00
    -15.390  0.0000E+00  0.0000E+00  0.4000E+00  0.4000E+00
    -15.262  0.0000E+00  0.0000E+00  0.4000E+00  0.4000E+00
    -15.134  0.0000E+00  0.0000E+00  0.4000E+00  0.4000E+00
    -15.006  0.0000E+00  0.0000E+00  0.4000E+00  0.4000E+00
    -14.878  0.0000E+00  0.0000E+00  0.4000E+00  0.4000E+00
    -14.751  0.0000E+00  0.0000E+00  0.4000E+00  0.4000E+00
    -14.623  0.0000E+00  0.0000E+00  0.4000E+00  0.4000E+00
    -14.495  0.0000E+00  0.0000E+00  0.4000E+00  0.4000E+00
    -14.367  0.3474E-15  0.0000E+00  0.4000E+00  0.4000E+00
    -14.239  0.3569E-12  0.0000E+00  0.4000E+00  0.4000E+00
    -14.111  0.1871E-09  0.0000E+00  0.4000E+00  0.4000E+00
    -13.983  0.4407E-07  0.0000E+00  0.4000E+00  0.4000E+00
    -13.856  0.4692E-05  0.0000E+00  0.4000E+00  0.4000E+00
    -13.728  0.2278E-03  0.0000E+00  0.4000E+00  0.4000E+00
    -13.600  0.5122E-02  0.0000E+00  0.4007E+00  0.4000E+00
    -13.472  0.5484E-01  0.8685E-16  0.4077E+00  0.4000E+00
    -13.344  0.2940E+00  0.6574E-13  0.4453E+00  0.4000E+00
    -13.216  0.8481E+00  0.4210E-10  0.5537E+00  0.4000E+00
    -13.089  0.1393E+01  0.1209E-07  0.7318E+00  0.4000E+00
    -12.961  0.1291E+01  0.1565E-05  0.8969E+00  0.4000E+00
    -12.833  0.6333E+00  0.9163E-04  0.9779E+00  0.4000E+00
    -12.705  0.1542E+00  0.2442E-02  0.9976E+00  0.4003E+00
    -12.577  0.1788E-01  0.2981E-01  0.9999E+00  0.4041E+00
    -12.449  0.9648E-03  0.1679E+00  0.1000E+01  0.4256E+00
    -12.322  0.2388E-04  0.4385E+00  0.1000E+01  0.4817E+00
    -12.194  0.2688E-06  0.5334E+00  0.1000E+01  0.5498E+00
    -12.066  0.1366E-08  0.3024E+00  0.1000E+01  0.5885E+00
    -11.938  0.3123E-11  0.7972E-01  0.1000E+01  0.5987E+00
    -11.810  0.3126E-14  0.9765E-02  0.1000E+01  0.5999E+00
    -11.682  0.0000E+00  0.2075E-02  0.1000E+01  0.6002E+00
    -11.555  0.0000E+00  0.2516E-01  0.1000E+01  0.6034E+00
    -11.427  0.0000E+00  0.1901E+00  0.1000E+01  0.6277E+00
    -11.299  0.0000E+00  0.6654E+00  0.1000E+01  0.7128E+00
    -11.171  0.0000E+00  0.1083E+01  0.1000E+01  0.8512E+00
    -11.043  0.0000E+00  0.8219E+00  0.1000E+01  0.9563E+00
    -10.915  0.0000E+00  0.2904E+00  0.1000E+01  0.9934E+00
    -10.788  0.0000E+00  0.4756E-01  0.1000E+01  0.9995E+00
    -10.660  0.0000E+00  0.3591E-02  0.1000E+01  0.1000E+01
    -10.532  0.0000E+00  0.1241E-03  0.1000E+01  0.1000E+01
    -10.404  0.0000E+00  0.1950E-05  0.1000E+01  0.1000E+01
    -10.276  0.0000E+00  0.1387E-07  0.1000E+01  0.1000E+01
    -10.148  0.0000E+00  0.4439E-10  0.1000E+01  0.1000E+01
    -10.020  0.0000E+00  0.6392E-13  0.1000E+01  0.1000E+01
     -9.893  0.0000E+00  0.0000E+00  0.1000E+01  0.1000E+01
     -9.765  0.0000E+00  0.0000E+00  0.1000E+01  0.1000E+01
     -9.637  0.0000E+00  0.0000E+00  0.1000E+01  0.1000E+01
     -9.509  0.0000E+00  0.0000E+00  0.1000E+01  0.1000E+01
     -9.381  0.0000E+00  0.0000E+00  0.1000E+01  0.1000E+01
     -9.253  0.0000E+00  0.0000E+00  0.1000E+01  0.1000E+01
     -9.126  0.0000E+00  0.0000E+00  0.1000E+01  0.1000E+01
     -8.998  0.0000E+00  0.0000E+00  0.1000E+01  0.1000E+01
     -8.870  0.0000E+00  0.0000E+00  0.1000E+01  0.1000E+01
     -8.742  0.0000E+00  0.0000E+00  0.1000E+01  0.1000E+01
     -8.614  0.0000E+00  0.0000E+00  0.1000E+01  0.1000E+01
     -8.486  0.0000E+00  0.0000E+00  0.1000E+01  0.1000E+01
     -8.359  0.0000E+00  0.0000E+00  0.1000E+01  0.1000E+01
     -8.231  0.0000E+00  0.0000E+00  0.1000E+01  0.1000E+01
     -8.103  0.0000E+00  0.0000E+00  0.1000E+01  0.1000E+01
     -7.975  0.0000E+00  0.0000E+00  0.1000E+01  0.1000E+01
     -7.847  0.1528E-13  0.0000E+00  0.1000E+01  0.1000E+01
     -7.719  0.1253E-10  0.0000E+00  0.1000E+01  0.1000E+01
     -7.592  0.4606E-08  0.0000E+00  0.1000E+01  0.1000E+01
     -7.464  0.7615E-06  0.0000E+00  0.1000E+01  0.1000E+01
     -7.336  0.5690E-04  0.0000E+00  0.1000E+01  0.1000E+01
     -7.208  0.1931E-02  0.0000E+00  0.1000E+01  0.1000E+01
     -7.080  0.2997E-01  0.0000E+00  0.1004E+01  0.1000E+01
     -6.952  0.2140E+00  0.0000E+00  0.1031E+01  0.1000E+01
     -6.825  0.7079E+00  0.0000E+00  0.1122E+01  0.1000E+01
     -6.697  0.1089E+01  0.0000E+00  0.1261E+01  0.1000E+01
     -6.569  0.7815E+00  0.0000E+00  0.1361E+01  0.1000E+01
     -6.441  0.2609E+00  0.0000E+00  0.1394E+01  0.1000E+01
     -6.313  0.4038E-01  0.0000E+00  0.1400E+01  0.1000E+01
     -6.185  0.2878E-02  0.0000E+00  0.1400E+01  0.1000E+01
     -6.057  0.9389E-04  0.0000E+00  0.1400E+01  0.1000E+01
     -5.930  0.1392E-05  0.0000E+00  0.1400E+01  0.1000E+01
     -5.802  0.9335E-08  0.0000E+00  0.1400E+01  0.1000E+01
     -5.674  0.2817E-10  0.0000E+00  0.1400E+01  0.1000E+01
     -5.546  0.3821E-13  0.6774E-13  0.1400E+01  0.1000E+01
     -5.418  0.0000E+00  0.4686E-10  0.1400E+01  0.1000E+01
     -5.290  0.0000E+00  0.1454E-07  0.1400E+01  0.1000E+01
     -5.163  0.0000E+00  0.2030E-05  0.1400E+01  0.1000E+01
     -5.035  0.0000E+00  0.1283E-03  0.1400E+01  0.1000E+01
     -4.907  0.0000E+00  0.3686E-02  0.1400E+01  0.1000E+01
     -4.779  0.0000E+00  0.4849E-01  0.1400E+01  0.1007E+01
     -4.651  0.0000E+00  0.2940E+00  0.1400E+01  0.1044E+01
     -4.523  0.0000E+00  0.8267E+00  0.1400E+01  0.1150E+01
     -4.396  0.0000E+00  0.1082E+01  0.1400E+01  0.1288E+01
     -4.268  0.0000E+00  0.6602E+00  0.1400E+01  0.1373E+01
     -4.140  0.0000E+00  0.1874E+00  0.1400E+01  0.1397E+01
     -4.012  0.0000E+00  0.2462E-01  0.1400E+01  0.1400E+01
     -3.884  0.0000E+00  0.1488E-02  0.1400E+01  0.1400E+01
     -3.756  0.0000E+00  0.4108E-04  0.1400E+01  0.1400E+01
     -3.629  0.0000E+00  0.5150E-06  0.1400E+01  0.1400E+01
     -3.501  0.0000E+00  0.2916E-08  0.1400E+01  0.1400E+01
     -3.373  0.0000E+00  0.7428E-11  0.1400E+01  0.1400E+01
     -3.245  0.0000E+00  0.8337E-14  0.1400E+01  0.1400E+01
     -3.117  0.0000E+00  0.0000E+00  0.1400E+01  0.1400E+01
     -2.989  0.0000E+00  0.0000E+00  0.1400E+01  0.1400E+01
     -2.862  0.0000E+00  0.0000E+00  0.1400E+01  0.1400E+01
     -2.734  0.0000E+00  0.0000E+00  0.1400E+01  0.1400E+01
     -2.606  0.0000E+00  0.0000E+00  0.1400E+01  0.1400E+01
     -2.478  0.0000E+00  0.0000E+00  0.1400E+01  0.1400E+01
     -2.350  0.0000E+00  0.0000E+00  0.1400E+01  0.1400E+01
     -2.222  0.0000E+00  0.0000E+00  0.1400E+01  0.1400E+01
     -2.094  0.0000E+00  0.0000E+00  0.1400E+01  0.1400E+01
     -1.967  0.0000E+00  0.0000E+00  0.1400E+01  0.1400E+01
     -1.839  0.0000E+00  0.0000E+00  0.1400E+01  0.1400E+01
     -1.711  0.0000E+00  0.0000E+00  0.1400E+01  0.1400E+01
     -1.583  0.8685E-16  0.0000E+00  0.1400E+01  0.1400E+01
     -1.455  0.1046E-12  0.8685E-16  0.1400E+01  0.1400E+01
     -1.327  0.6341E-10  0.6539E-13  0.1400E+01  0.1400E+01
     -1.200  0.1725E-07  0.4190E-10  0.1400E+01  0.1400E+01
     -1.072  0.2115E-05  0.1204E-07  0.1400E+01  0.1400E+01
     -0.944  0.1174E-03  0.1559E-05  0.1400E+01  0.1400E+01
     -0.816  0.2966E-02  0.9136E-04  0.1400E+01  0.1400E+01
     -0.688  0.3435E-01  0.2436E-02  0.1405E+01  0.1400E+01
     -0.560  0.1836E+00  0.2976E-01  0.1428E+01  0.1404E+01
     -0.433  0.4552E+00  0.1677E+00  0.1486E+01  0.1426E+01
     -0.305  0.5258E+00  0.4383E+00  0.1554E+01  0.1482E+01
     -0.177  0.2830E+00  0.5335E+00  0.1590E+01  0.1550E+01
     -0.049  0.7082E-01  0.3026E+00  0.1599E+01  0.1588E+01
      0.079  0.8195E-02  0.7983E-01  0.1600E+01  0.1599E+01
      0.207  0.4358E-03  0.9742E-02  0.1600E+01  0.1600E+01
      0.334  0.1058E-04  0.5465E-03  0.1600E+01  0.1600E+01
      0.462  0.1167E-06  0.1400E-04  0.1600E+01  0.1600E+01
      0.590  0.6275E-07  0.1628E-06  0.1600E+01  0.1600E+01
      0.718  0.6244E-05  0.8550E-09  0.1600E+01  0.1600E+01
      0.846  0.2843E-03  0.3280E-09  0.1600E+01  0.1600E+01
      0.974  0.5902E-02  0.7106E-07  0.1601E+01  0.1600E+01
      1.101  0.5626E-01  0.6990E-05  0.1608E+01  0.1600E+01
      1.229  0.2480E+00  0.3121E-03  0.1640E+01  0.1600E+01
      1.357  0.5128E+00  0.6387E-02  0.1705E+01  0.1601E+01
      1.485  0.5505E+00  0.6104E-01  0.1776E+01  0.1609E+01
      1.613  0.5819E+00  0.2860E+00  0.1850E+01  0.1645E+01
      1.741  0.1012E+01  0.7455E+00  0.1979E+01  0.1741E+01
      1.869  0.1329E+01  0.1325E+01  0.2149E+01  0.1910E+01
      1.996  0.1094E+01  0.1709E+01  0.2289E+01  0.2128E+01
      2.124  0.6124E+00  0.1372E+01  0.2367E+01  0.2304E+01
      2.252  0.2126E+00  0.6005E+00  0.2395E+01  0.2381E+01
      2.380  0.3895E-01  0.1358E+00  0.2400E+01  0.2398E+01
      2.508  0.3436E-02  0.1537E-01  0.2400E+01  0.2400E+01
      2.636  0.1407E-03  0.8482E-03  0.2400E+01  0.2400E+01
      2.763  0.2633E-05  0.2222E-04  0.2400E+01  0.2400E+01
      2.891  0.2234E-07  0.2706E-06  0.2400E+01  0.2400E+01
      3.019  0.8542E-10  0.1509E-08  0.2400E+01  0.2400E+01
      3.147  0.1468E-12  0.3815E-11  0.2400E+01  0.2400E+01
      3.275  0.0000E+00  0.4342E-14  0.2400E+01  0.2400E+01
      3.403  0.0000E+00  0.0000E+00  0.2400E+01  0.2400E+01
      3.530  0.0000E+00  0.0000E+00  0.2400E+01  0.2400E+01
      3.658  0.0000E+00  0.0000E+00  0.2400E+01  0.2400E+01
      3.786  0.0000E+00  0.0000E+00  0.2400E+01  0.2400E+01
      3.914  0.0000E+00  0.0000E+00  0.2400E+01  0.2400E+01
      4.042  0.0000E+00  0.0000E+00  0.2400E+01  0.2400E+01
