       N       E                     dE             d eps       ncg     rms          rms(c)
DAV:   1     0.957832528330E+02    0.95783E+02   -0.29940E+03    56   0.502E+02
DAV:   2     0.993708319519E+01   -0.85846E+02   -0.81442E+02    92   0.124E+02
DAV:   3    -0.933297906279E+01   -0.19270E+02   -0.17930E+02    76   0.657E+01
DAV:   4    -0.980415030367E+01   -0.47117E+00   -0.47115E+00    64   0.920E+00
DAV:   5    -0.981246239969E+01   -0.83121E-02   -0.83121E-02    72   0.104E+00    0.646E+00
DAV:   6    -0.962789857284E+01    0.18456E+00   -0.11014E+00    48   0.896E+00    0.304E+00
DAV:   7    -0.984542198488E+01   -0.21752E+00   -0.20312E-01    56   0.405E+00    0.150E+00
DAV:   8    -0.984404121152E+01    0.13808E-02   -0.71763E-02    56   0.210E+00    0.437E-01
DAV:   9    -0.985176833326E+01   -0.77271E-02   -0.51351E-03    60   0.618E-01    0.205E-01
DAV:  10    -0.985276908301E+01   -0.10007E-02   -0.68506E-04    56   0.235E-01    0.480E-02
DAV:  11    -0.985291689490E+01   -0.14781E-03   -0.53372E-05    48   0.619E-02    0.164E-02
DAV:  12    -0.985306013768E+01   -0.14324E-03   -0.16809E-05    48   0.292E-02    0.860E-03
DAV:  13    -0.985319413634E+01   -0.13400E-03   -0.56743E-06    52   0.162E-02    0.485E-03
DAV:  14    -0.985334677252E+01   -0.15264E-03   -0.61417E-06    48   0.154E-02    0.372E-03
DAV:  15    -0.985342320975E+01   -0.76437E-04   -0.27813E-06    60   0.974E-03
   1 F= -.98534232E+01 E0= -.98534232E+01  d E =-.985342E+01  mag=     2.0000
       N       E                     dE             d eps       ncg     rms          rms(c)
DAV:   1    -0.959647454068E+01    0.25687E+00   -0.33234E+01    64   0.468E+01    0.220E+00
DAV:   2    -0.960679440662E+01   -0.10320E-01   -0.40979E-01    64   0.567E+00    0.862E-01
DAV:   3    -0.961845266107E+01   -0.11658E-01   -0.20675E-02    64   0.136E+00    0.368E-01
DAV:   4    -0.962161781847E+01   -0.31652E-02   -0.43348E-03    52   0.549E-01    0.139E-01
DAV:   5    -0.962286524891E+01   -0.12474E-02   -0.25115E-04    56   0.155E-01    0.676E-02
DAV:   6    -0.962324071550E+01   -0.37547E-03   -0.91810E-05    52   0.865E-02    0.144E-02
DAV:   7    -0.962335596953E+01   -0.11525E-03   -0.12059E-05    52   0.336E-02    0.614E-03
DAV:   8    -0.962345244279E+01   -0.96473E-04   -0.47899E-06    56   0.168E-02
   2 F= -.96234524E+01 E0= -.96234524E+01  d E =0.229971E+00  mag=     2.0000
       N       E                     dE             d eps       ncg     rms          rms(c)
DAV:   1    -0.981644255351E+01   -0.19309E+00   -0.23904E+01    64   0.406E+01    0.182E+00
DAV:   2    -0.984695565098E+01   -0.30513E-01   -0.51408E-01    60   0.558E+00    0.861E-01
DAV:   3    -0.985718700905E+01   -0.10231E-01   -0.20084E-02    64   0.124E+00    0.384E-01
DAV:   4    -0.985992807717E+01   -0.27411E-02   -0.87703E-03    56   0.712E-01    0.132E-01
DAV:   5    -0.986060659424E+01   -0.67852E-03   -0.46502E-04    56   0.206E-01    0.685E-02
DAV:   6    -0.986072215808E+01   -0.11556E-03   -0.76114E-05    64   0.829E-02    0.248E-02
DAV:   7    -0.986084665398E+01   -0.12450E-03   -0.16821E-05    64   0.442E-02    0.539E-03
DAV:   8    -0.986090504997E+01   -0.58396E-04   -0.21876E-06    64   0.114E-02
   3 F= -.98609050E+01 E0= -.98609050E+01  d E =-.748184E-02  mag=     2.0000
