 vasp.5.4.1 05Feb16 (build Nov 22 2023 12:07:42) gamma-only                     
  
 executed on           IFC91_ompi date 2026.09.19  22:55:08
 running on    2 total cores
 distrk:  each k-point on    2 cores,    1 groups
 distr:  one band on NCORES_PER_BAND=   1 cores,    2 groups


--------------------------------------------------------------------------------------------------------


 INCAR:
 POTCAR:    PAW_PBE O 08Apr2002                   
 POTCAR:    PAW_PBE O 08Apr2002                   
   VRHFIN =O: s2p4                                                              
   LEXCH  = PE                                                                  
   EATOM  =   432.3788 eV,   31.7789 Ry                                         
                                                                                
   TITEL  = PAW_PBE O 08Apr2002                                                 
   LULTRA =        F    use ultrasoft PP ?                                      
   IUNSCR =        1    unscreen: 0-lin 1-nonlin 2-no                           
   RPACOR =    1.200    partial core radius                                     
   POMASS =   16.000; ZVAL   =    6.000    mass and valenz                      
   RCORE  =    1.520    outmost cutoff radius                                   
   RWIGS  =    1.550; RWIGS  =    0.820    wigner-seitz radius (au A)           
   ENMAX  =  400.000; ENMIN  =  300.000 eV                                      
   ICORE  =        2    local potential                                         
   LCOR   =        T    correct aug charges                                     
   LPAW   =        T    paw PP                                                  
   EAUG   =  605.392                                                            
   DEXC   =    0.000                                                            
   RMAX   =    1.553    core radius for proj-oper                               
   RAUG   =    1.300    factor for augmentation sphere                          
   RDEP   =    1.550    radius for radial grids                                 
   RDEPT  =    1.329    core radius for aug-charge                              
                                                                                
   Atomic configuration                                                         
    4 entries                                                                   
     n  l   j            E        occ.                                          
     1  0  0.50      -514.6923   2.0000                                         
     2  0  0.50       -23.9615   2.0000                                         
     2  1  0.50        -9.0305   4.0000                                         
     3  2  1.50        -9.5241   0.0000                                         
   Description                                                                  
     l       E           TYP  RCUT    TYP  RCUT                                 
     0    -23.9615318     23  1.200                                             
     0     -9.5240782     23  1.200                                             
     1     -9.0304911     23  1.520                                             
     1      8.1634956     23  1.520                                             
     2     -9.5240782      7  1.500                                             
  local pseudopotential read in
  partial core-charges read in
  partial kinetic energy density read in
  kinetic energy density of atom read in
  atomic valenz-charges read in
  non local Contribution for L=           0  read in
    real space projection operators read in
  non local Contribution for L=           0  read in
    real space projection operators read in
  non local Contribution for L=           1  read in
    real space projection operators read in
  non local Contribution for L=           1  read in
    real space projection operators read in
    PAW grid and wavefunctions read in
 
   number of l-projection  operators is LMAX  =           4
   number of lm-projection operators is LMMAX =           8
 
  PAW_PBE O 08Apr2002                   :
 energy of atom  1       EATOM= -432.3788
 kinetic energy error for atom=    0.1156 (will be added to EATOM!!)
 
 
 POSCAR: O2 molecule in a box                    
  positions in cartesian coordinates
  No initial velocities read in
 exchange correlation table for  LEXCH =        8
   RHO(1)=    0.500       N(1)  =     2000
   RHO(2)=  100.500       N(2)  =     4000

 VTST: version 3.2, (02/03/18)

 CHAIN: initializing optimizer
 
 OPT: Using VASP Conjugate-Gradient optimizer
 CHAIN: Read ICHAIN            0
 
 POSCAR: O2 molecule in a box                    
  positions in cartesian coordinates
  No initial velocities read in
 


--------------------------------------------------------------------------------------------------------


 ion  position               nearest neighbor table
   1  0.000  0.000  0.000-   2 1.22
   2  0.000  0.000  0.153-   1 1.22
 
  LATTYP: Found a simple cubic cell.
 ALAT       =     8.0000000000
  
  Lattice vectors:
  
 A1 = (   8.0000000000,   0.0000000000,   0.0000000000)
 A2 = (   0.0000000000,   8.0000000000,   0.0000000000)
 A3 = (   0.0000000000,   0.0000000000,   8.0000000000)


Analysis of symmetry for initial positions (statically):
=====================================================================
 Subroutine PRICEL returns:
 Original cell was already a primitive cell.
 

 Routine SETGRP: Setting up the symmetry group for a 
 simple cubic supercell.


 Subroutine GETGRP returns: Found 16 space group operations
 (whereof  8 operations were pure point group operations)
 out of a pool of 48 trial point group operations.


The static configuration has the point symmetry C_4v.
 The point group associated with its full space group is D_4h.


Analysis of symmetry for dynamics (positions and initial velocities):
=====================================================================
 Subroutine PRICEL returns:
 Original cell was already a primitive cell.
 

 Routine SETGRP: Setting up the symmetry group for a 
 simple cubic supercell.


 Subroutine GETGRP returns: Found 16 space group operations
 (whereof  8 operations were pure point group operations)
 out of a pool of 48 trial point group operations.


The dynamic configuration has the point symmetry C_4v.
 The point group associated with its full space group is D_4h.


Analysis of structural, dynamic, and magnetic symmetry:
=====================================================================
 Subroutine PRICEL returns:
 Original cell was already a primitive cell.
 

 Routine SETGRP: Setting up the symmetry group for a 
 simple cubic supercell.


 Subroutine GETGRP returns: Found 16 space group operations
 (whereof  8 operations were pure point group operations)
 out of a pool of 48 trial point group operations.


The magnetic configuration has the point symmetry C_4v.
 The point group associated with its full space group is D_4h.


 Subroutine INISYM returns: Found 16 space group operations
 (whereof  8 operations are pure point group operations),
 and found     1 'primitive' translations

 
 
 KPOINTS: Gamma-point only                        

Automatic generation of k-mesh.
Space group operators:
 irot       det(A)        alpha          n_x          n_y          n_z        tau_x        tau_y        tau_z
    1     1.000000     0.000000     1.000000     0.000000     0.000000     0.000000     0.000000     0.000000
    2     1.000000    90.000000     0.000000     0.000000    -1.000000     0.000000     0.000000     0.000000
    3     1.000000   180.000000     0.000000     0.000000     1.000000     0.000000     0.000000     0.000000
    4     1.000000    90.000000     0.000000     0.000000     1.000000     0.000000     0.000000     0.000000
    5    -1.000000   180.000000     1.000000     0.000000     0.000000     0.000000     0.000000     0.000000
    6    -1.000000   180.000000     0.707107     0.707107     0.000000     0.000000     0.000000     0.000000
    7    -1.000000   180.000000     0.000000     1.000000     0.000000     0.000000     0.000000     0.000000
    8    -1.000000   180.000000     0.707107    -0.707107     0.000000     0.000000     0.000000     0.000000
    9    -1.000000     0.000000     1.000000     0.000000     0.000000     0.000000     0.000000     0.152500
   10    -1.000000    90.000000     0.000000     0.000000    -1.000000     0.000000     0.000000     0.152500
   11    -1.000000   180.000000     0.000000     0.000000     1.000000     0.000000     0.000000     0.152500
   12    -1.000000    90.000000     0.000000     0.000000     1.000000     0.000000     0.000000     0.152500
   13     1.000000   180.000000     1.000000     0.000000     0.000000     0.000000     0.000000     0.152500
   14     1.000000   180.000000     0.707107     0.707107     0.000000     0.000000     0.000000     0.152500
   15     1.000000   180.000000     0.000000     1.000000     0.000000     0.000000     0.000000     0.152500
   16     1.000000   180.000000     0.707107    -0.707107     0.000000     0.000000     0.000000     0.152500
 
 Subroutine IBZKPT returns following result:
 ===========================================
 
 Found      1 irreducible k-points:
 
 Following reciprocal coordinates:
            Coordinates               Weight
  0.000000  0.000000  0.000000      1.000000
 
 Following cartesian coordinates:
            Coordinates               Weight
  0.000000  0.000000  0.000000      1.000000
 


--------------------------------------------------------------------------------------------------------




 Dimension of arrays:
   k-points           NKPTS =      1   k-points in BZ     NKDIM =      1   number of bands    NBANDS=     12
   number of dos      NEDOS =    301   number of ions     NIONS =      2
   non local maximal  LDIM  =      4   non local SUM 2l+1 LMDIM =      8
   total plane-waves  NPLWV =  64000
   max r-space proj   IRMAX =      1   max aug-charges    IRDMAX=   1821
   dimension x,y,z NGX =    40 NGY =   40 NGZ =   40
   dimension x,y,z NGXF=    80 NGYF=   80 NGZF=   80
   support grid    NGXF=    80 NGYF=   80 NGZF=   80
   ions per type =               2
 NGX,Y,Z   is equivalent  to a cutoff of   8.31,  8.31,  8.31 a.u.
 NGXF,Y,Z  is equivalent  to a cutoff of  16.62, 16.62, 16.62 a.u.


 I would recommend the setting:
   dimension x,y,z NGX =    39 NGY =   39 NGZ =   39
 SYSTEM =  O2 dimer in a box                       
 POSCAR =  O2 molecule in a box                    

 Startparameter for this run:
   NWRITE =      2    write-flag & timer
   PREC   = normal    normal or accurate (medium, high low for compatibility)
   ISTART =      0    job   : 0-new  1-cont  2-samecut
   ICHARG =      2    charge: 1-file 2-atom 10-const
   ISPIN  =      2    spin polarized calculation?
   LNONCOLLINEAR =      F non collinear calculations
   LSORBIT =      F    spin-orbit coupling
   INIWAV =      1    electr: 0-lowe 1-rand  2-diag
   LASPH  =      F    aspherical Exc in radial PAW
   METAGGA=      F    non-selfconsistent MetaGGA calc.

 Electronic Relaxation 1
   ENCUT  =  400.0 eV  29.40 Ry    5.42 a.u.  13.05 13.05 13.05*2*pi/ulx,y,z
   ENINI  =  400.0     initial cutoff
   ENAUG  =  605.4 eV  augmentation charge cutoff
   NELM   =     60;   NELMIN=  2; NELMDL= -5     # of ELM steps 
   EDIFF  = 0.1E-03   stopping-criterion for ELM
   LREAL  =      F    real-space projection
   NLSPLINE    = F    spline interpolate recip. space projectors
   LCOMPAT=      F    compatible to vasp.4.4
   GGA_COMPAT  = T    GGA compatible to vasp.4.4-vasp.4.6
   LMAXPAW     = -100 max onsite density
   LMAXMIX     =    2 max onsite mixed and CHGCAR
   VOSKOWN=      0    Vosko Wilk Nusair interpolation
   ROPT   =    0.00000
 Ionic relaxation
   EDIFFG = 0.1E-02   stopping-criterion for IOM
   NSW    =      5    number of steps for IOM
   NBLOCK =      1;   KBLOCK =      5    inner block; outer block 
   IBRION =      2    ionic relax: 0-MD 1-quasi-New 2-CG
   NFREE  =      1    steps in history (QN), initial steepest desc. (CG)
   ISIF   =      2    stress and relaxation
   IWAVPR =     11    prediction:  0-non 1-charg 2-wave 3-comb
   ISYM   =      2    0-nonsym 1-usesym 2-fastsym
   LCORR  =      T    Harris-Foulkes like correction to forces

   POTIM  = 0.5000    time-step for ionic-motion
   TEIN   =    0.0    initial temperature
   TEBEG  =    0.0;   TEEND  =   0.0 temperature during run
   SMASS  =  -3.00    Nose mass-parameter (am)
   estimated Nose-frequenzy (Omega)   =  0.10E-29 period in steps =****** mass=  -0.146E-26a.u.
   SCALEE = 1.0000    scale energy and forces
   NPACO  =    256;   APACO  = 16.0  distance and # of slots for P.C.
   PSTRESS=    0.0 pullay stress

  Mass of Ions in am
   POMASS =  16.00
  Ionic Valenz
   ZVAL   =   6.00
  Atomic Wigner-Seitz radii
   RWIGS  =  -1.00
  virtual crystal weights 
   VCA    =   1.00
   NELECT =      12.0000    total number of electrons
   NUPDOWN=      -1.0000    fix difference up-down

 DOS related values:
   EMIN   =  10.00;   EMAX   =-10.00  energy-range for DOS
   EFERMI =   0.00
   ISMEAR =     0;   SIGMA  =   0.20  broadening in eV -4-tet -1-fermi 0-gaus

 Electronic relaxation 2 (details)
   IALGO  =     38    algorithm
   LDIAG  =      T    sub-space diagonalisation (order eigenvalues)
   LSUBROT=      F    optimize rotation matrix (better conditioning)
   TURBO    =      0    0=normal 1=particle mesh
   IRESTART =      0    0=no restart 2=restart with 2 vectors
   NREBOOT  =      0    no. of reboots
   NMIN     =      0    reboot dimension
   EREF     =   0.00    reference energy to select bands
   IMIX   =      4    mixing-type and parameters
     AMIX     =   0.40;   BMIX     =  1.00
     AMIX_MAG =   1.60;   BMIX_MAG =  1.00
     AMIN     =   0.10
     WC   =   100.;   INIMIX=   1;  MIXPRE=   1;  MAXMIX= -45

 Intra band minimization:
   WEIMIN = 0.0010     energy-eigenvalue tresh-hold
   EBREAK =  0.21E-05  absolut break condition
   DEPER  =   0.30     relativ break condition  

   TIME   =   0.40     timestep for ELM

  volume/ion in A,a.u.               =     256.00      1727.57
  Fermi-wavevector in a.u.,A,eV,Ry     =   0.468503  0.885341  2.986405  0.219495
  Thomas-Fermi vector in A             =   1.459519
 
 Write flags
   LWAVE  =      T    write WAVECAR
   LCHARG =      T    write CHGCAR
   LVTOT  =      F    write LOCPOT, total local potential
   LVHAR  =      F    write LOCPOT, Hartree potential only
   LELF   =      F    write electronic localiz. function (ELF)
   LORBIT =      0    0 simple, 1 ext, 2 COOP (PROOUT)


 Dipole corrections
   LMONO  =      F    monopole corrections only (constant potential shift)
   LDIPOL =      F    correct potential (dipole corrections)
   IDIPOL =      0    1-x, 2-y, 3-z, 4-all directions 
   EPSILON=  1.0000000 bulk dielectric constant

 Exchange correlation treatment:
   GGA     =    --    GGA type
   LEXCH   =     8    internal setting for exchange type
   VOSKOWN=      0    Vosko Wilk Nusair interpolation
   LHFCALC =     F    Hartree Fock is set to
   LHFONE  =     F    Hartree Fock one center treatment
   AEXX    =    0.0000 exact exchange contribution

 Linear response parameters
   LEPSILON=     F    determine dielectric tensor
   LRPA    =     F    only Hartree local field effects (RPA)
   LNABLA  =     F    use nabla operator in PAW spheres
   LVEL    =     F    velocity operator in full k-point grid
   LINTERFAST=   F  fast interpolation
   KINTER  =     0    interpolate to denser k-point grid
   CSHIFT  =0.1000    complex shift for real part using Kramers Kronig
   OMEGAMAX=  -1.0    maximum frequency
   DEG_THRESHOLD= 0.2000000E-02 threshold for treating states as degnerate
   RTIME   =    0.100 relaxation time in fs

 Orbital magnetization related:
   ORBITALMAG=     F  switch on orbital magnetization
   LCHIMAG   =     F  perturbation theory with respect to B field
   DQ        =  0.001000  dq finite difference perturbation B field



--------------------------------------------------------------------------------------------------------


 conjugate gradient relaxation of ions
 charge density and potential will be updated during run
 spin polarized calculation
 Variant of blocked Davidson
 Davidson routine will perform the subspace rotation
 perform sub-space diagonalisation
    after iterative eigenvector-optimisation
 modified Broyden-mixing scheme, WC =      100.0
 initial mixing is a Kerker type mixing with AMIX =  0.4000 and BMIX =      1.0000
 Hartree-type preconditioning will be used
 using additional bands            6
 reciprocal scheme for non local part
 use partial core corrections
 calculate Harris-corrections to forces 
   (improved forces if not selfconsistent)
 use gradient corrections 
 use of overlap-Matrix (Vanderbilt PP)
 Gauss-broadening in eV      SIGMA  =   0.20


--------------------------------------------------------------------------------------------------------


  energy-cutoff  :      400.00
  volume of cell :      512.00
      direct lattice vectors                 reciprocal lattice vectors
     8.000000000  0.000000000  0.000000000     0.125000000  0.000000000  0.000000000
     0.000000000  8.000000000  0.000000000     0.000000000  0.125000000  0.000000000
     0.000000000  0.000000000  8.000000000     0.000000000  0.000000000  0.125000000

  length of vectors
     8.000000000  8.000000000  8.000000000     0.125000000  0.125000000  0.125000000


 
 k-points in units of 2pi/SCALE and weight: Gamma-point only                        
   0.00000000  0.00000000  0.00000000       1.000
 
 k-points in reciprocal lattice and weights: Gamma-point only                        
   0.00000000  0.00000000  0.00000000       1.000
 
 position of ions in fractional coordinates (direct lattice) 
   0.00000000  0.00000000  0.00000000
   0.00000000  0.00000000  0.15250000
 
 position of ions in cartesian coordinates  (Angst):
   0.00000000  0.00000000  0.00000000
   0.00000000  0.00000000  1.22000000
 


--------------------------------------------------------------------------------------------------------


 use seriel FFT for wavefunctions x direction half grid
 k-point  1 :   0.0000 0.0000 0.0000  plane waves:    4658

 maximum and minimum number of plane-waves per node :      4658     4658

 maximum number of plane-waves:      4658
 maximum index in each direction: 
   IXMAX=   13   IYMAX=   13   IZMAX=   13
   IXMIN=    0   IYMIN=  -13   IZMIN=  -13

 WARNING: aliasing errors must be expected set NGX to  54 to avoid them
 WARNING: aliasing errors must be expected set NGY to  54 to avoid them
 WARNING: aliasing errors must be expected set NGZ to  54 to avoid them
 aliasing errors are usually negligible using standard VASP settings
 and one can safely disregard these warnings

 serial   3D FFT for wavefunctions
 parallel 3D FFT for charge:
    minimum data exchange during FFTs selected (reduces bandwidth)


 total amount of memory used by VASP on root node    64371. kBytes
========================================================================

   base      :      30000. kBytes
   nonl-proj :        447. kBytes
   fftplans  :       9062. kBytes
   grid      :      23961. kBytes
   one-center:          6. kBytes
   wavefun   :        895. kBytes
 
     INWAV:  cpu time    0.0000: real time    0.0000
 Broyden mixing: mesh for mixing (old mesh)
   NGX = 27   NGY = 27   NGZ = 27
  (NGX  = 80   NGY  = 80   NGZ  = 80)
  gives a total of  19683 points

 initial charge density was supplied:
 charge density of overlapping atoms calculated
 number of electron      12.0000000 magnetization       2.0000000
 keeping initial charge density in first step


--------------------------------------------------------------------------------------------------------


 Maximum index for augmentation-charges          793 (set IRDMAX)


--------------------------------------------------------------------------------------------------------


 First call to EWALD:  gamma=   0.222
 Maximum number of real-space cells 3x 3x 3
 Maximum number of reciprocal cells 3x 3x 3

 FEWALD executed in parallel
    FEWALD:  cpu time    0.0997: real time    0.0039


----------------------------------------- Iteration    1(   1)  ---------------------------------------


    POTLOK:  cpu time    4.9201: real time    0.3764
    SETDIJ:  cpu time    0.0070: real time    0.0071
     EDDAV:  cpu time    8.8118: real time    0.3177
       DOS:  cpu time    0.0597: real time    0.0020
    --------------------------------------------
      LOOP:  cpu time   13.8750: real time    0.7058

 eigenvalue-minimisations  :    56
 total energy-change (2. order) : 0.9578325E+02  (-0.2994007E+03)
 number of electron      12.0000000 magnetization       2.0000000
 augmentation part       12.0000000 magnetization       2.0000000

 Free energy of the ion-electron system (eV)
  ---------------------------------------------------
  alpha Z        PSCENC =         1.08558169
  Ewald energy   TEWEN  =        60.46911053
  -Hartree energ DENC   =      -790.01998270
  -exchange      EXHF   =         0.00000000
  -V(xc)+E(xc)   XCENC  =        54.72027138
  PAW double counting   =       692.81204765     -696.39983308
  entropy T*S    EENTRO =        -0.07360552
  eigenvalues    EBANDS =       -91.33672918
  atomic energy  EATOM  =       864.52639207
  Solvation  Ediel_sol  =         0.00000000
  ---------------------------------------------------
  free energy    TOTEN  =        95.78325283 eV

  energy without entropy =       95.85685835  energy(sigma->0) =       95.82005559


--------------------------------------------------------------------------------------------------------




----------------------------------------- Iteration    1(   2)  ---------------------------------------


     EDDAV:  cpu time   20.0892: real time    0.6880
       DOS:  cpu time    0.0064: real time    0.0002
    --------------------------------------------
      LOOP:  cpu time   20.1742: real time    0.6908

 eigenvalue-minimisations  :    92
 total energy-change (2. order) :-0.8584617E+02  (-0.8144210E+02)
 number of electron      12.0000000 magnetization       2.0000000
 augmentation part       12.0000000 magnetization       2.0000000

 Free energy of the ion-electron system (eV)
  ---------------------------------------------------
  alpha Z        PSCENC =         1.08558169
  Ewald energy   TEWEN  =        60.46911053
  -Hartree energ DENC   =      -790.01998270
  -exchange      EXHF   =         0.00000000
  -V(xc)+E(xc)   XCENC  =        54.72027138
  PAW double counting   =       692.81204765     -696.39983308
  entropy T*S    EENTRO =        -0.00000000
  eigenvalues    EBANDS =      -177.25650433
  atomic energy  EATOM  =       864.52639207
  Solvation  Ediel_sol  =         0.00000000
  ---------------------------------------------------
  free energy    TOTEN  =         9.93708320 eV

  energy without entropy =        9.93708320  energy(sigma->0) =        9.93708320


--------------------------------------------------------------------------------------------------------




----------------------------------------- Iteration    1(   3)  ---------------------------------------


     EDDAV:  cpu time    8.9374: real time    0.3003
       DOS:  cpu time    0.0060: real time    0.0002
    --------------------------------------------
      LOOP:  cpu time    8.9818: real time    0.3018

 eigenvalue-minimisations  :    76
 total energy-change (2. order) :-0.1927006E+02  (-0.1792959E+02)
 number of electron      12.0000000 magnetization       2.0000000
 augmentation part       12.0000000 magnetization       2.0000000

 Free energy of the ion-electron system (eV)
  ---------------------------------------------------
  alpha Z        PSCENC =         1.08558169
  Ewald energy   TEWEN  =        60.46911053
  -Hartree energ DENC   =      -790.01998270
  -exchange      EXHF   =         0.00000000
  -V(xc)+E(xc)   XCENC  =        54.72027138
  PAW double counting   =       692.81204765     -696.39983308
  entropy T*S    EENTRO =        -0.00000274
  eigenvalues    EBANDS =      -196.52656385
  atomic energy  EATOM  =       864.52639207
  Solvation  Ediel_sol  =         0.00000000
  ---------------------------------------------------
  free energy    TOTEN  =        -9.33297906 eV

  energy without entropy =       -9.33297632  energy(sigma->0) =       -9.33297769


--------------------------------------------------------------------------------------------------------




----------------------------------------- Iteration    1(   4)  ---------------------------------------


     EDDAV:  cpu time    9.8037: real time    0.3357
       DOS:  cpu time    0.0051: real time    0.0002
    --------------------------------------------
      LOOP:  cpu time    9.8430: real time    0.3370

 eigenvalue-minimisations  :    64
 total energy-change (2. order) :-0.4711712E+00  (-0.4711505E+00)
 number of electron      12.0000000 magnetization       2.0000000
 augmentation part       12.0000000 magnetization       2.0000000

 Free energy of the ion-electron system (eV)
  ---------------------------------------------------
  alpha Z        PSCENC =         1.08558169
  Ewald energy   TEWEN  =        60.46911053
  -Hartree energ DENC   =      -790.01998270
  -exchange      EXHF   =         0.00000000
  -V(xc)+E(xc)   XCENC  =        54.72027138
  PAW double counting   =       692.81204765     -696.39983308
  entropy T*S    EENTRO =        -0.00000006
  eigenvalues    EBANDS =      -196.99773778
  atomic energy  EATOM  =       864.52639207
  Solvation  Ediel_sol  =         0.00000000
  ---------------------------------------------------
  free energy    TOTEN  =        -9.80415030 eV

  energy without entropy =       -9.80415025  energy(sigma->0) =       -9.80415028


--------------------------------------------------------------------------------------------------------




----------------------------------------- Iteration    1(   5)  ---------------------------------------


     EDDAV:  cpu time   18.4743: real time    0.6416
       DOS:  cpu time    0.0053: real time    0.0002
    CHARGE:  cpu time    1.8294: real time    0.0629
    MIXING:  cpu time    0.4516: real time    0.0153
    --------------------------------------------
      LOOP:  cpu time   20.8050: real time    0.7215

 eigenvalue-minimisations  :    72
 total energy-change (2. order) :-0.8312096E-02  (-0.8312083E-02)
 number of electron      12.0000171 magnetization       2.0000049
 augmentation part        1.1711067 magnetization       0.4865938

 Broyden mixing:
  rms(total) = 0.64601E+00    rms(broyden)= 0.64035E+00
  rms(prec ) = 0.70725E+00
  weight for this iteration     100.00

 Free energy of the ion-electron system (eV)
  ---------------------------------------------------
  alpha Z        PSCENC =         1.08558169
  Ewald energy   TEWEN  =        60.46911053
  -Hartree energ DENC   =      -790.01998270
  -exchange      EXHF   =         0.00000000
  -V(xc)+E(xc)   XCENC  =        54.72027138
  PAW double counting   =       692.81204765     -696.39983308
  entropy T*S    EENTRO =        -0.00000006
  eigenvalues    EBANDS =      -197.00604987
  atomic energy  EATOM  =       864.52639207
  Solvation  Ediel_sol  =         0.00000000
  ---------------------------------------------------
  free energy    TOTEN  =        -9.81246240 eV

  energy without entropy =       -9.81246234  energy(sigma->0) =       -9.81246237


--------------------------------------------------------------------------------------------------------




----------------------------------------- Iteration    1(   6)  ---------------------------------------


    POTLOK:  cpu time    3.2273: real time    0.3224
    SETDIJ:  cpu time    0.0058: real time    0.0057
     EDDAV:  cpu time    3.2774: real time    0.1250
       DOS:  cpu time    0.0041: real time    0.0001
    CHARGE:  cpu time    0.8752: real time    0.0296
    MIXING:  cpu time    0.5472: real time    0.0190
    --------------------------------------------
      LOOP:  cpu time    8.0631: real time    0.5062

 eigenvalue-minimisations  :    48
 total energy-change (2. order) : 0.1845638E+00  (-0.1101413E+00)
 number of electron      12.0000169 magnetization       2.0000069
 augmentation part        1.1561071 magnetization       0.5004264

 Broyden mixing:
  rms(total) = 0.30407E+00    rms(broyden)= 0.30313E+00
  rms(prec ) = 0.33670E+00
  weight for this iteration     100.00

 eigenvalues of (default mixing * dielectric matrix)
  average eigenvalue GAMMA=   0.7578
  0.7578

 Free energy of the ion-electron system (eV)
  ---------------------------------------------------
  alpha Z        PSCENC =         1.08558169
  Ewald energy   TEWEN  =        60.46911053
  -Hartree energ DENC   =      -793.56744730
  -exchange      EXHF   =         0.00000000
  -V(xc)+E(xc)   XCENC  =        55.38742827
  PAW double counting   =       776.38412533     -779.90211944
  entropy T*S    EENTRO =        -0.00000000
  eigenvalues    EBANDS =      -194.01096971
  atomic energy  EATOM  =       864.52639207
  Solvation  Ediel_sol  =         0.00000000
  ---------------------------------------------------
  free energy    TOTEN  =        -9.62789857 eV

  energy without entropy =       -9.62789857  energy(sigma->0) =       -9.62789857


--------------------------------------------------------------------------------------------------------




----------------------------------------- Iteration    1(   7)  ---------------------------------------


    POTLOK:  cpu time    4.2761: real time    0.2916
    SETDIJ:  cpu time    0.0059: real time    0.0059
     EDDAV:  cpu time    5.7577: real time    0.2070
       DOS:  cpu time    0.0094: real time    0.0003
    CHARGE:  cpu time    1.2466: real time    0.0426
    MIXING:  cpu time    0.1992: real time    0.0070
    --------------------------------------------
      LOOP:  cpu time   11.5431: real time    0.5562

 eigenvalue-minimisations  :    56
 total energy-change (2. order) :-0.2175234E+00  (-0.2031205E-01)
 number of electron      12.0000168 magnetization       2.0000085
 augmentation part        1.1478112 magnetization       0.4906125

 Broyden mixing:
  rms(total) = 0.14969E+00    rms(broyden)= 0.14965E+00
  rms(prec ) = 0.16761E+00
  weight for this iteration     100.00

 eigenvalues of (default mixing * dielectric matrix)
  average eigenvalue GAMMA=   1.1896
  1.6707  0.7086

 Free energy of the ion-electron system (eV)
  ---------------------------------------------------
  alpha Z        PSCENC =         1.08558169
  Ewald energy   TEWEN  =        60.46911053
  -Hartree energ DENC   =      -795.17576662
  -exchange      EXHF   =         0.00000000
  -V(xc)+E(xc)   XCENC  =        55.28984276
  PAW double counting   =       824.69587363     -828.29374434
  entropy T*S    EENTRO =        -0.00000000
  eigenvalues    EBANDS =      -192.44271169
  atomic energy  EATOM  =       864.52639207
  Solvation  Ediel_sol  =         0.00000000
  ---------------------------------------------------
  free energy    TOTEN  =        -9.84542198 eV

  energy without entropy =       -9.84542198  energy(sigma->0) =       -9.84542198


--------------------------------------------------------------------------------------------------------




----------------------------------------- Iteration    1(   8)  ---------------------------------------


    POTLOK:  cpu time    4.1870: real time    0.2852
    SETDIJ:  cpu time    0.0059: real time    0.0059
     EDDAV:  cpu time    4.4263: real time    0.1583
       DOS:  cpu time    0.0044: real time    0.0001
    CHARGE:  cpu time    0.9267: real time    0.0313
    MIXING:  cpu time    0.2910: real time    0.0100
    --------------------------------------------
      LOOP:  cpu time    9.8853: real time    0.4924

 eigenvalue-minimisations  :    56
 total energy-change (2. order) : 0.1380773E-02  (-0.7176282E-02)
 number of electron      12.0000167 magnetization       2.0000084
 augmentation part        1.1418110 magnetization       0.4918245

 Broyden mixing:
  rms(total) = 0.43738E-01    rms(broyden)= 0.43694E-01
  rms(prec ) = 0.46897E-01
  weight for this iteration     100.00

 eigenvalues of (default mixing * dielectric matrix)
  average eigenvalue GAMMA=   1.1603
  2.0489  0.7736  0.6585

 Free energy of the ion-electron system (eV)
  ---------------------------------------------------
  alpha Z        PSCENC =         1.08558169
  Ewald energy   TEWEN  =        60.46911053
  -Hartree energ DENC   =      -796.66250059
  -exchange      EXHF   =         0.00000000
  -V(xc)+E(xc)   XCENC  =        55.42633542
  PAW double counting   =       886.29353857     -889.84286336
  entropy T*S    EENTRO =        -0.00000000
  eigenvalues    EBANDS =      -191.13963554
  atomic energy  EATOM  =       864.52639207
  Solvation  Ediel_sol  =         0.00000000
  ---------------------------------------------------
  free energy    TOTEN  =        -9.84404121 eV

  energy without entropy =       -9.84404121  energy(sigma->0) =       -9.84404121


--------------------------------------------------------------------------------------------------------




----------------------------------------- Iteration    1(   9)  ---------------------------------------


    POTLOK:  cpu time    4.5017: real time    0.2793
    SETDIJ:  cpu time    0.0058: real time    0.0058
     EDDAV:  cpu time    4.1187: real time    0.1472
       DOS:  cpu time    0.0043: real time    0.0001
    CHARGE:  cpu time    0.8903: real time    0.0293
    MIXING:  cpu time    0.2731: real time    0.0090
    --------------------------------------------
      LOOP:  cpu time    9.8415: real time    0.4724

 eigenvalue-minimisations  :    60
 total energy-change (2. order) :-0.7727122E-02  (-0.5135062E-03)
 number of electron      12.0000167 magnetization       2.0000082
 augmentation part        1.1419066 magnetization       0.4911278

 Broyden mixing:
  rms(total) = 0.20506E-01    rms(broyden)= 0.20500E-01
  rms(prec ) = 0.23214E-01
  weight for this iteration     100.00

 eigenvalues of (default mixing * dielectric matrix)
  average eigenvalue GAMMA=   1.2496
  2.1626  1.4420  0.7437  0.6503

 Free energy of the ion-electron system (eV)
  ---------------------------------------------------
  alpha Z        PSCENC =         1.08558169
  Ewald energy   TEWEN  =        60.46911053
  -Hartree energ DENC   =      -796.74249431
  -exchange      EXHF   =         0.00000000
  -V(xc)+E(xc)   XCENC  =        55.42979555
  PAW double counting   =       897.49000909     -901.03481804
  entropy T*S    EENTRO =        -0.00000000
  eigenvalues    EBANDS =      -191.07534491
  atomic energy  EATOM  =       864.52639207
  Solvation  Ediel_sol  =         0.00000000
  ---------------------------------------------------
  free energy    TOTEN  =        -9.85176833 eV

  energy without entropy =       -9.85176833  energy(sigma->0) =       -9.85176833


--------------------------------------------------------------------------------------------------------




----------------------------------------- Iteration    1(  10)  ---------------------------------------


    POTLOK:  cpu time    4.6942: real time    0.2807
    SETDIJ:  cpu time    0.0059: real time    0.0059
     EDDAV:  cpu time    3.8451: real time    0.1359
       DOS:  cpu time    0.0042: real time    0.0001
    CHARGE:  cpu time    0.8944: real time    0.0294
    MIXING:  cpu time    0.2760: real time    0.0091
    --------------------------------------------
      LOOP:  cpu time    9.7698: real time    0.4627

 eigenvalue-minimisations  :    56
 total energy-change (2. order) :-0.1000750E-02  (-0.6850620E-04)
 number of electron      12.0000167 magnetization       2.0000082
 augmentation part        1.1427961 magnetization       0.4913933

 Broyden mixing:
  rms(total) = 0.47984E-02    rms(broyden)= 0.47973E-02
  rms(prec ) = 0.60992E-02
  weight for this iteration     100.00

 eigenvalues of (default mixing * dielectric matrix)
  average eigenvalue GAMMA=   1.2640
  2.3777  1.7682  0.8086  0.6827  0.6827

 Free energy of the ion-electron system (eV)
  ---------------------------------------------------
  alpha Z        PSCENC =         1.08558169
  Ewald energy   TEWEN  =        60.46911053
  -Hartree energ DENC   =      -796.75977655
  -exchange      EXHF   =         0.00000000
  -V(xc)+E(xc)   XCENC  =        55.42446894
  PAW double counting   =       907.44646009     -910.96808642
  entropy T*S    EENTRO =        -0.00000000
  eigenvalues    EBANDS =      -191.07691942
  atomic energy  EATOM  =       864.52639207
  Solvation  Ediel_sol  =         0.00000000
  ---------------------------------------------------
  free energy    TOTEN  =        -9.85276908 eV

  energy without entropy =       -9.85276908  energy(sigma->0) =       -9.85276908


--------------------------------------------------------------------------------------------------------




----------------------------------------- Iteration    1(  11)  ---------------------------------------


    POTLOK:  cpu time    4.7061: real time    0.2825
    SETDIJ:  cpu time    0.0057: real time    0.0057
     EDDAV:  cpu time    3.7975: real time    0.1375
       DOS:  cpu time    0.0044: real time    0.0001
    CHARGE:  cpu time    0.9978: real time    0.0340
    MIXING:  cpu time    0.3946: real time    0.0136
    --------------------------------------------
      LOOP:  cpu time    9.9570: real time    0.4751

 eigenvalue-minimisations  :    48
 total energy-change (2. order) :-0.1478119E-03  (-0.5337218E-05)
 number of electron      12.0000167 magnetization       2.0000082
 augmentation part        1.1427587 magnetization       0.4913034

 Broyden mixing:
  rms(total) = 0.16356E-02    rms(broyden)= 0.16355E-02
  rms(prec ) = 0.31025E-02
  weight for this iteration     100.00

 eigenvalues of (default mixing * dielectric matrix)
  average eigenvalue GAMMA=   1.2193
  2.4590  1.7785  0.9879  0.7698  0.6819  0.6388

 Free energy of the ion-electron system (eV)
  ---------------------------------------------------
  alpha Z        PSCENC =         1.08558169
  Ewald energy   TEWEN  =        60.46911053
  -Hartree energ DENC   =      -796.84740267
  -exchange      EXHF   =         0.00000000
  -V(xc)+E(xc)   XCENC  =        55.42750621
  PAW double counting   =       909.22763897     -912.74860812
  entropy T*S    EENTRO =        -0.00000000
  eigenvalues    EBANDS =      -190.99313558
  atomic energy  EATOM  =       864.52639207
  Solvation  Ediel_sol  =         0.00000000
  ---------------------------------------------------
  free energy    TOTEN  =        -9.85291689 eV

  energy without entropy =       -9.85291689  energy(sigma->0) =       -9.85291689


--------------------------------------------------------------------------------------------------------




----------------------------------------- Iteration    1(  12)  ---------------------------------------


    POTLOK:  cpu time    4.2877: real time    0.2806
    SETDIJ:  cpu time    0.0059: real time    0.0059
     EDDAV:  cpu time    3.7895: real time    0.1376
       DOS:  cpu time    0.0042: real time    0.0001
    CHARGE:  cpu time    0.8379: real time    0.0287
    MIXING:  cpu time    0.2636: real time    0.0090
    --------------------------------------------
      LOOP:  cpu time    9.2402: real time    0.4638

 eigenvalue-minimisations  :    48
 total energy-change (2. order) :-0.1432428E-03  (-0.1680886E-05)
 number of electron      12.0000167 magnetization       2.0000082
 augmentation part        1.1426369 magnetization       0.4912601

 Broyden mixing:
  rms(total) = 0.85962E-03    rms(broyden)= 0.85921E-03
  rms(prec ) = 0.20163E-02
  weight for this iteration     100.00

 eigenvalues of (default mixing * dielectric matrix)
  average eigenvalue GAMMA=   1.2372
  2.5031  1.8351  1.3969  0.8814  0.7323  0.6871  0.6242

 Free energy of the ion-electron system (eV)
  ---------------------------------------------------
  alpha Z        PSCENC =         1.08558169
  Ewald energy   TEWEN  =        60.46911053
  -Hartree energ DENC   =      -796.93215667
  -exchange      EXHF   =         0.00000000
  -V(xc)+E(xc)   XCENC  =        55.43107845
  PAW double counting   =       909.66858920     -913.18916275
  entropy T*S    EENTRO =        -0.00000000
  eigenvalues    EBANDS =      -190.91249265
  atomic energy  EATOM  =       864.52639207
  Solvation  Ediel_sol  =         0.00000000
  ---------------------------------------------------
  free energy    TOTEN  =        -9.85306014 eV

  energy without entropy =       -9.85306014  energy(sigma->0) =       -9.85306014


--------------------------------------------------------------------------------------------------------




----------------------------------------- Iteration    1(  13)  ---------------------------------------


    POTLOK:  cpu time    4.5422: real time    0.2814
    SETDIJ:  cpu time    0.0058: real time    0.0058
     EDDAV:  cpu time    9.8391: real time    0.3451
       DOS:  cpu time    0.0066: real time    0.0002
    CHARGE:  cpu time    0.8533: real time    0.0291
    MIXING:  cpu time    0.2851: real time    0.0097
    --------------------------------------------
      LOOP:  cpu time   15.5810: real time    0.6730

 eigenvalue-minimisations  :    52
 total energy-change (2. order) :-0.1339987E-03  (-0.5674336E-06)
 number of electron      12.0000167 magnetization       2.0000082
 augmentation part        1.1426014 magnetization       0.4912366

 Broyden mixing:
  rms(total) = 0.48540E-03    rms(broyden)= 0.48517E-03
  rms(prec ) = 0.13584E-02
  weight for this iteration     100.00

 eigenvalues of (default mixing * dielectric matrix)
  average eigenvalue GAMMA=   1.2453
  2.5156  2.0355  1.5100  1.0840  0.7993  0.7230  0.6702  0.6243

 Free energy of the ion-electron system (eV)
  ---------------------------------------------------
  alpha Z        PSCENC =         1.08558169
  Ewald energy   TEWEN  =        60.46911053
  -Hartree energ DENC   =      -796.97800755
  -exchange      EXHF   =         0.00000000
  -V(xc)+E(xc)   XCENC  =        55.43229834
  PAW double counting   =       909.57141614     -913.09235304
  entropy T*S    EENTRO =        -0.00000000
  eigenvalues    EBANDS =      -190.86763231
  atomic energy  EATOM  =       864.52639207
  Solvation  Ediel_sol  =         0.00000000
  ---------------------------------------------------
  free energy    TOTEN  =        -9.85319414 eV

  energy without entropy =       -9.85319414  energy(sigma->0) =       -9.85319414


--------------------------------------------------------------------------------------------------------




----------------------------------------- Iteration    1(  14)  ---------------------------------------


    POTLOK:  cpu time    4.5087: real time    0.2766
    SETDIJ:  cpu time    0.0057: real time    0.0057
     EDDAV:  cpu time    4.0500: real time    0.1474
       DOS:  cpu time    0.0044: real time    0.0001
    CHARGE:  cpu time    0.8766: real time    0.0292
    MIXING:  cpu time    0.3169: real time    0.0108
    --------------------------------------------
      LOOP:  cpu time    9.8100: real time    0.4716

 eigenvalue-minimisations  :    48
 total energy-change (2. order) :-0.1526362E-03  (-0.6141718E-06)
 number of electron      12.0000167 magnetization       2.0000082
 augmentation part        1.1426119 magnetization       0.4912365

 Broyden mixing:
  rms(total) = 0.37173E-03    rms(broyden)= 0.37171E-03
  rms(prec ) = 0.70647E-03
  weight for this iteration     100.00

 eigenvalues of (default mixing * dielectric matrix)
  average eigenvalue GAMMA=   1.3808
  2.9586  2.4845  1.7347  1.4899  0.9899  0.7725  0.7156  0.6577  0.6239

 Free energy of the ion-electron system (eV)
  ---------------------------------------------------
  alpha Z        PSCENC =         1.08558169
  Ewald energy   TEWEN  =        60.46911053
  -Hartree energ DENC   =      -797.01194642
  -exchange      EXHF   =         0.00000000
  -V(xc)+E(xc)   XCENC  =        55.43240603
  PAW double counting   =       909.30094768     -912.82199337
  entropy T*S    EENTRO =        -0.00000000
  eigenvalues    EBANDS =      -190.83384498
  atomic energy  EATOM  =       864.52639207
  Solvation  Ediel_sol  =         0.00000000
  ---------------------------------------------------
  free energy    TOTEN  =        -9.85334677 eV

  energy without entropy =       -9.85334677  energy(sigma->0) =       -9.85334677


--------------------------------------------------------------------------------------------------------




----------------------------------------- Iteration    1(  15)  ---------------------------------------


    POTLOK:  cpu time    4.4275: real time    0.2811
    SETDIJ:  cpu time    0.0058: real time    0.0058
     EDDAV:  cpu time    3.8468: real time    0.1394
       DOS:  cpu time    0.0042: real time    0.0001
    --------------------------------------------
      LOOP:  cpu time    8.3219: real time    0.4277

 eigenvalue-minimisations  :    60
 total energy-change (2. order) :-0.7643723E-04  (-0.2781344E-06)
 number of electron      12.0000167 magnetization       2.0000082
 augmentation part        1.1426119 magnetization       0.4912365

 Free energy of the ion-electron system (eV)
  ---------------------------------------------------
  alpha Z        PSCENC =         1.08558169
  Ewald energy   TEWEN  =        60.46911053
  -Hartree energ DENC   =      -797.03228977
  -exchange      EXHF   =         0.00000000
  -V(xc)+E(xc)   XCENC  =        55.43297474
  PAW double counting   =       909.28310818     -912.80411041
  entropy T*S    EENTRO =        -0.00000000
  eigenvalues    EBANDS =      -190.81419023
  atomic energy  EATOM  =       864.52639207
  Solvation  Ediel_sol  =         0.00000000
  ---------------------------------------------------
  free energy    TOTEN  =        -9.85342321 eV

  energy without entropy =       -9.85342321  energy(sigma->0) =       -9.85342321


--------------------------------------------------------------------------------------------------------




 average (electrostatic) potential at core
  the test charge radii are     0.7215
  (the norm of the test charge is              1.0000)
       1 -83.7046       2 -83.7044
 
 
 
 E-fermi :  -5.6394     XC(G=0):  -1.0964     alpha+bet : -0.2925


 spin component 1

 k-point     1 :       0.0000    0.0000    0.0000
  band No.  band energies     occupation 
      1     -32.6171      1.00000
      2     -20.3372      1.00000
      3     -13.2504      1.00000
      4     -13.1891      1.00000
      5     -13.1891      1.00000
      6      -6.6402      1.00000
      7      -6.6402      1.00000
      8      -0.4167      0.00000
      9       1.4176      0.00000
     10       1.7518      0.00000
     11       1.7518      0.00000
     12       1.9380      0.00000

 spin component 2

 k-point     1 :       0.0000    0.0000    0.0000
  band No.  band energies     occupation 
      1     -31.4015      1.00000
      2     -18.5423      1.00000
      3     -12.3137      1.00000
      4     -11.3467      1.00000
      5     -11.3467      1.00000
      6      -4.3633      0.00000
      7      -4.3633      0.00000
      8      -0.2675      0.00000
      9       1.7654      0.00000
     10       1.9390      0.00000
     11       1.9390      0.00000
     12       2.0171      0.00000


--------------------------------------------------------------------------------------------------------


 soft charge-density along one line, spin component           1
         0         1         2         3         4         5         6         7         8         9
 total charge-density along one line
 
 soft charge-density along one line, spin component           2
         0         1         2         3         4         5         6         7         8         9
 total charge-density along one line
 
 pseudopotential strength for first ion, spin component:           1
 14.535 -17.872  -0.000  -0.134  -0.000   0.000   0.169   0.000
-17.872  22.009   0.000   0.171   0.000  -0.000  -0.216  -0.000
 -0.000   0.000 -11.392  -0.000   0.000  14.273   0.000  -0.000
 -0.134   0.171  -0.000 -11.401  -0.000   0.000  14.272   0.000
 -0.000   0.000   0.000  -0.000 -11.392  -0.000   0.000  14.273
  0.000  -0.000  14.273   0.000  -0.000 -17.841  -0.000   0.000
  0.169  -0.216   0.000  14.272   0.000  -0.000 -17.824  -0.000
  0.000  -0.000  -0.000   0.000  14.273   0.000  -0.000 -17.841
 pseudopotential strength for first ion, spin component:           2
 14.009 -17.192  -0.000  -0.134  -0.000   0.000   0.168   0.000
-17.192  21.132   0.000   0.170   0.000  -0.000  -0.215  -0.000
 -0.000   0.000 -10.784  -0.000   0.000  13.419   0.000  -0.000
 -0.134   0.170  -0.000 -11.190  -0.000   0.000  13.977   0.000
 -0.000   0.000   0.000  -0.000 -10.784  -0.000   0.000  13.419
  0.000  -0.000  13.419   0.000  -0.000 -16.637  -0.000   0.000
  0.168  -0.215   0.000  13.977   0.000  -0.000 -17.407  -0.000
  0.000  -0.000  -0.000   0.000  13.419   0.000  -0.000 -16.637
 total augmentation occupancy for first ion, spin component:           1
  2.713   0.435   0.000   0.548  -0.000   0.000   0.265  -0.000
  0.435   0.199   0.000   0.561   0.000  -0.000   0.175   0.000
  0.000   0.000   1.765   0.000   0.000   0.116   0.000   0.000
  0.548   0.561   0.000   2.505   0.000  -0.000   0.572   0.000
 -0.000   0.000   0.000   0.000   1.765   0.000  -0.000   0.116
  0.000  -0.000   0.116  -0.000   0.000   0.032   0.000   0.000
  0.265   0.175   0.000   0.572  -0.000   0.000   0.163   0.000
 -0.000   0.000   0.000   0.000   0.116   0.000   0.000   0.032
 total augmentation occupancy for first ion, spin component:           2
 -0.105  -0.061   0.000  -0.018  -0.000   0.000  -0.015   0.000
 -0.061  -0.012  -0.000  -0.011   0.000   0.000  -0.006  -0.000
  0.000  -0.000   0.357   0.000   0.000  -0.086  -0.000   0.000
 -0.018  -0.011   0.000  -0.037  -0.000   0.000  -0.019   0.000
  0.000   0.000   0.000   0.000   0.357   0.000  -0.000  -0.086
  0.000   0.000  -0.086   0.000   0.000   0.003   0.000   0.000
 -0.015  -0.006  -0.000  -0.019  -0.000   0.000  -0.006   0.000
  0.000  -0.000   0.000   0.000  -0.086   0.000   0.000   0.003


------------------------ aborting loop because EDIFF is reached ----------------------------------------


    CHARGE:  cpu time    0.8615: real time    0.0288
    FORLOC:  cpu time    0.1417: real time    0.0047
    FORNL :  cpu time    0.4889: real time    0.0167
    STRESS:  cpu time    1.6165: real time    0.0544
    FORCOR:  cpu time    2.4866: real time    0.2758
    FORHAR:  cpu time    0.0244: real time    0.0244
    MIXING:  cpu time    0.0111: real time    0.0111
    OFIELD:  cpu time    0.0002: real time    0.0002

  FORCE on cell =-STRESS in cart. coord.  units (eV):
  Direction    XX          YY          ZZ          XY          YZ          ZX
  --------------------------------------------------------------------------------------
  Alpha Z     1.08558     1.08558     1.08558
  Ewald    -124.07066  -124.07066   308.61036     0.00000    -0.00000     0.00000
  Hartree   198.22984   198.22984   400.58006    -0.00000    -0.00000    -0.00000
  E(xc)     -59.20364   -59.20364   -58.03128    -0.00000     0.00000     0.00000
  Local    -258.51260  -258.51260  -847.75735     0.00000     0.00000    -0.00000
  n-local   -44.28424   -44.28424   -48.13661     0.00000     0.00000     0.00000
  augment    13.00980    13.00980    10.43243     0.00000     0.00000    -0.00000
  Kinetic   272.18131   272.18131   233.34616     0.00000     0.00000     0.00000
  Fock        0.00000     0.00000     0.00000     0.00000     0.00000     0.00000
  -------------------------------------------------------------------------------------
  Total      -1.56461    -1.56461     0.12935     0.00000     0.00000    -0.00000
  in kB      -4.89606    -4.89606     0.40478     0.00000     0.00000    -0.00000
  external pressure =       -3.13 kB  Pullay stress =        0.00 kB


 VOLUME and BASIS-vectors are now :
 -----------------------------------------------------------------------------
  energy-cutoff  :      400.00
  volume of cell :      512.00
      direct lattice vectors                 reciprocal lattice vectors
     8.000000000  0.000000000  0.000000000     0.125000000  0.000000000  0.000000000
     0.000000000  8.000000000  0.000000000     0.000000000  0.125000000  0.000000000
     0.000000000  0.000000000  8.000000000     0.000000000  0.000000000  0.125000000

  length of vectors
     8.000000000  8.000000000  8.000000000     0.125000000  0.125000000  0.125000000


 FORCES acting on ions
    electron-ion (+dipol)            ewald-force                    non-local-force                 convergence-correction
 -----------------------------------------------------------------------------------------------
   -.542E-14 0.789E-14 0.288E+03   0.124E-16 0.123E-15 -.343E+03   -.827E-24 0.000E+00 0.532E+02   -.314E-13 -.572E-13 -.198E-02
   0.314E-15 -.105E-13 -.288E+03   0.150E-16 -.440E-16 0.343E+03   -.620E-24 0.000E+00 -.532E+02   -.374E-13 -.540E-13 0.198E-02
 -----------------------------------------------------------------------------------------------
   -.510E-14 -.264E-14 0.405E-04   0.273E-16 0.794E-16 0.000E+00   -.145E-23 0.000E+00 0.213E-13   -.688E-13 -.111E-12 0.309E-06
 
 
 POSITION                                       TOTAL-FORCE (eV/Angst)
 -----------------------------------------------------------------------------------
      0.00000      0.00000      0.00000         0.000000      0.000000     -1.083378
      0.00000      0.00000      1.22000         0.000000      0.000000      1.083378
 -----------------------------------------------------------------------------------
    total drift:                               -0.000000     -0.000000      0.000041


--------------------------------------------------------------------------------------------------------



  FREE ENERGIE OF THE ION-ELECTRON SYSTEM (eV)
  ---------------------------------------------------
  free  energy   TOTEN  =        -9.85342321 eV

  energy  without entropy=       -9.85342321  energy(sigma->0) =       -9.85342321
 


--------------------------------------------------------------------------------------------------------


    POTLOK:  cpu time    0.2912: real time    0.2914


--------------------------------------------------------------------------------------------------------


 stress matrix after NEB project (eV)
     -1.56461      0.00000     -0.00000
      0.00000     -1.56461      0.00000
      0.00000      0.00000      0.12935
  FORCES: max atom, RMS     1.083378    1.083378
  FORCE total and by dimension    1.532127    1.083378
  Stress total and by dimension    2.216471    1.564610


--------------------------------------------------------------------------------------------------------


    WAVPRE:  cpu time    0.0801: real time    0.0200
 FEWALD executed in parallel
    FEWALD:  cpu time    0.0045: real time    0.0011
    ORTHCH:  cpu time    4.2614: real time    0.1424
     LOOP+:  cpu time  195.1599: real time   10.8714


----------------------------------------- Iteration    2(   1)  ---------------------------------------


    POTLOK:  cpu time    5.8415: real time    0.2802
    SETDIJ:  cpu time    0.0058: real time    0.0058
     EDDAV:  cpu time    3.8521: real time    0.1366
       DOS:  cpu time    0.0050: real time    0.0002
    CHARGE:  cpu time    0.9389: real time    0.0311
    MIXING:  cpu time    0.1551: real time    0.0051
    --------------------------------------------
      LOOP:  cpu time   10.8339: real time    0.4601

 eigenvalue-minimisations  :    64
 total energy-change (2. order) : 0.2568722E+00  (-0.3323363E+01)
 number of electron      12.0000094 magnetization       2.0000085
 augmentation part        1.0755203 magnetization       0.4841247

 Broyden mixing:
  rms(total) = 0.21990E+00    rms(broyden)= 0.21500E+00
  rms(prec ) = 0.23904E+00
  weight for this iteration     100.00

 Free energy of the ion-electron system (eV)
  ---------------------------------------------------
  alpha Z        PSCENC =         1.08558169
  Ewald energy   TEWEN  =        27.54247241
  -Hartree energ DENC   =      -772.39004683
  -exchange      EXHF   =         0.00000000
  -V(xc)+E(xc)   XCENC  =        55.01389975
  PAW double counting   =       909.31574868     -912.83667808
  entropy T*S    EENTRO =        -0.00000000
  eigenvalues    EBANDS =      -181.85384422
  atomic energy  EATOM  =       864.52639207
  Solvation  Ediel_sol  =         0.00000000
  ---------------------------------------------------
  free energy    TOTEN  =        -9.59647454 eV

  energy without entropy =       -9.59647454  energy(sigma->0) =       -9.59647454


--------------------------------------------------------------------------------------------------------




----------------------------------------- Iteration    2(   2)  ---------------------------------------


    POTLOK:  cpu time    4.6602: real time    0.2779
    SETDIJ:  cpu time    0.0056: real time    0.0056
     EDDAV:  cpu time    6.2592: real time    0.2241
       DOS:  cpu time    0.0042: real time    0.0001
    CHARGE:  cpu time    0.8487: real time    0.0285
    MIXING:  cpu time    0.1629: real time    0.0055
    --------------------------------------------
      LOOP:  cpu time   11.9906: real time    0.5434

 eigenvalue-minimisations  :    64
 total energy-change (2. order) :-0.1031987E-01  (-0.4097942E-01)
 number of electron      12.0000096 magnetization       2.0000086
 augmentation part        1.0782033 magnetization       0.4899287

 Broyden mixing:
  rms(total) = 0.86223E-01    rms(broyden)= 0.85549E-01
  rms(prec ) = 0.94971E-01
  weight for this iteration     100.00

 eigenvalues of (default mixing * dielectric matrix)
  average eigenvalue GAMMA=   0.7645
  0.7645

 Free energy of the ion-electron system (eV)
  ---------------------------------------------------
  alpha Z        PSCENC =         1.08558169
  Ewald energy   TEWEN  =        27.54247241
  -Hartree energ DENC   =      -769.20605076
  -exchange      EXHF   =         0.00000000
  -V(xc)+E(xc)   XCENC  =        54.82103885
  PAW double counting   =       879.31699704     -882.77839351
  entropy T*S    EENTRO =        -0.00000000
  eigenvalues    EBANDS =      -184.91483219
  atomic energy  EATOM  =       864.52639207
  Solvation  Ediel_sol  =         0.00000000
  ---------------------------------------------------
  free energy    TOTEN  =        -9.60679441 eV

  energy without entropy =       -9.60679441  energy(sigma->0) =       -9.60679441


--------------------------------------------------------------------------------------------------------




----------------------------------------- Iteration    2(   3)  ---------------------------------------


    POTLOK:  cpu time    4.6810: real time    0.2728
    SETDIJ:  cpu time    0.0056: real time    0.0056
     EDDAV:  cpu time    3.1505: real time    0.1146
       DOS:  cpu time    0.0040: real time    0.0001
    CHARGE:  cpu time    0.8353: real time    0.0283
    MIXING:  cpu time    0.1746: real time    0.0060
    --------------------------------------------
      LOOP:  cpu time    8.8994: real time    0.4291

 eigenvalue-minimisations  :    64
 total energy-change (2. order) :-0.1165825E-01  (-0.2067485E-02)
 number of electron      12.0000097 magnetization       2.0000087
 augmentation part        1.0825444 magnetization       0.4908348

 Broyden mixing:
  rms(total) = 0.36838E-01    rms(broyden)= 0.36761E-01
  rms(prec ) = 0.41354E-01
  weight for this iteration     100.00

 eigenvalues of (default mixing * dielectric matrix)
  average eigenvalue GAMMA=   1.0548
  1.3940  0.7156

 Free energy of the ion-electron system (eV)
  ---------------------------------------------------
  alpha Z        PSCENC =         1.08558169
  Ewald energy   TEWEN  =        27.54247241
  -Hartree energ DENC   =      -768.25502023
  -exchange      EXHF   =         0.00000000
  -V(xc)+E(xc)   XCENC  =        54.74763176
  PAW double counting   =       864.90662945     -868.33045822
  entropy T*S    EENTRO =        -0.00000000
  eigenvalues    EBANDS =      -185.84168159
  atomic energy  EATOM  =       864.52639207
  Solvation  Ediel_sol  =         0.00000000
  ---------------------------------------------------
  free energy    TOTEN  =        -9.61845266 eV

  energy without entropy =       -9.61845266  energy(sigma->0) =       -9.61845266


--------------------------------------------------------------------------------------------------------




----------------------------------------- Iteration    2(   4)  ---------------------------------------


    POTLOK:  cpu time    4.6064: real time    0.2782
    SETDIJ:  cpu time    0.0057: real time    0.0057
     EDDAV:  cpu time    3.4066: real time    0.1313
       DOS:  cpu time    0.0041: real time    0.0001
    CHARGE:  cpu time    0.8745: real time    0.0297
    MIXING:  cpu time    0.2111: real time    0.0072
    --------------------------------------------
      LOOP:  cpu time    9.1560: real time    0.4540

 eigenvalue-minimisations  :    52
 total energy-change (2. order) :-0.3165157E-02  (-0.4334829E-03)
 number of electron      12.0000097 magnetization       2.0000088
 augmentation part        1.0849137 magnetization       0.4917709

 Broyden mixing:
  rms(total) = 0.13911E-01    rms(broyden)= 0.13884E-01
  rms(prec ) = 0.16039E-01
  weight for this iteration     100.00

 eigenvalues of (default mixing * dielectric matrix)
  average eigenvalue GAMMA=   1.0949
  1.7417  0.8575  0.6854

 Free energy of the ion-electron system (eV)
  ---------------------------------------------------
  alpha Z        PSCENC =         1.08558169
  Ewald energy   TEWEN  =        27.54247241
  -Hartree energ DENC   =      -767.74565113
  -exchange      EXHF   =         0.00000000
  -V(xc)+E(xc)   XCENC  =        54.71305132
  PAW double counting   =       850.81873770     -854.21938610
  entropy T*S    EENTRO =        -0.00000000
  eigenvalues    EBANDS =      -186.34281578
  atomic energy  EATOM  =       864.52639207
  Solvation  Ediel_sol  =         0.00000000
  ---------------------------------------------------
  free energy    TOTEN  =        -9.62161782 eV

  energy without entropy =       -9.62161782  energy(sigma->0) =       -9.62161782


--------------------------------------------------------------------------------------------------------




----------------------------------------- Iteration    2(   5)  ---------------------------------------


    POTLOK:  cpu time    4.4035: real time    0.2983
    SETDIJ:  cpu time    0.0056: real time    0.0057
     EDDAV:  cpu time    3.6959: real time    0.1328
       DOS:  cpu time    0.0042: real time    0.0001
    CHARGE:  cpu time    0.8590: real time    0.0290
    MIXING:  cpu time    0.2215: real time    0.0074
    --------------------------------------------
      LOOP:  cpu time    9.2385: real time    0.4750

 eigenvalue-minimisations  :    56
 total energy-change (2. order) :-0.1247430E-02  (-0.2511543E-04)
 number of electron      12.0000097 magnetization       2.0000088
 augmentation part        1.0847621 magnetization       0.4917445

 Broyden mixing:
  rms(total) = 0.67552E-02    rms(broyden)= 0.67540E-02
  rms(prec ) = 0.80911E-02
  weight for this iteration     100.00

 eigenvalues of (default mixing * dielectric matrix)
  average eigenvalue GAMMA=   1.2633
  2.2465  1.3466  0.7849  0.6752

 Free energy of the ion-electron system (eV)
  ---------------------------------------------------
  alpha Z        PSCENC =         1.08558169
  Ewald energy   TEWEN  =        27.54247241
  -Hartree energ DENC   =      -767.85648019
  -exchange      EXHF   =         0.00000000
  -V(xc)+E(xc)   XCENC  =        54.71678321
  PAW double counting   =       845.16083778     -848.55778348
  entropy T*S    EENTRO =        -0.00000000
  eigenvalues    EBANDS =      -186.24066874
  atomic energy  EATOM  =       864.52639207
  Solvation  Ediel_sol  =         0.00000000
  ---------------------------------------------------
  free energy    TOTEN  =        -9.62286525 eV

  energy without entropy =       -9.62286525  energy(sigma->0) =       -9.62286525


--------------------------------------------------------------------------------------------------------




----------------------------------------- Iteration    2(   6)  ---------------------------------------


    POTLOK:  cpu time    4.6309: real time    0.2748
    SETDIJ:  cpu time    0.0056: real time    0.0056
     EDDAV:  cpu time    9.4056: real time    0.3243
       DOS:  cpu time    0.0046: real time    0.0001
    CHARGE:  cpu time    0.9989: real time    0.0335
    MIXING:  cpu time    0.2472: real time    0.0083
    --------------------------------------------
      LOOP:  cpu time   15.3456: real time    0.6484

 eigenvalue-minimisations  :    52
 total energy-change (2. order) :-0.3754666E-03  (-0.9181012E-05)
 number of electron      12.0000097 magnetization       2.0000088
 augmentation part        1.0845940 magnetization       0.4915805

 Broyden mixing:
  rms(total) = 0.14405E-02    rms(broyden)= 0.14400E-02
  rms(prec ) = 0.23548E-02
  weight for this iteration     100.00

 eigenvalues of (default mixing * dielectric matrix)
  average eigenvalue GAMMA=   1.2396
  2.5341  1.4077  0.8852  0.7145  0.6565

 Free energy of the ion-electron system (eV)
  ---------------------------------------------------
  alpha Z        PSCENC =         1.08558169
  Ewald energy   TEWEN  =        27.54247241
  -Hartree energ DENC   =      -767.95822923
  -exchange      EXHF   =         0.00000000
  -V(xc)+E(xc)   XCENC  =        54.72124048
  PAW double counting   =       840.45498518     -843.85020602
  entropy T*S    EENTRO =        -0.00000000
  eigenvalues    EBANDS =      -186.14547729
  atomic energy  EATOM  =       864.52639207
  Solvation  Ediel_sol  =         0.00000000
  ---------------------------------------------------
  free energy    TOTEN  =        -9.62324072 eV

  energy without entropy =       -9.62324072  energy(sigma->0) =       -9.62324072


--------------------------------------------------------------------------------------------------------




----------------------------------------- Iteration    2(   7)  ---------------------------------------


    POTLOK:  cpu time    4.5011: real time    0.2728
    SETDIJ:  cpu time    0.0057: real time    0.0057
     EDDAV:  cpu time    3.1979: real time    0.1151
       DOS:  cpu time    0.0041: real time    0.0001
    CHARGE:  cpu time    0.8464: real time    0.0284
    MIXING:  cpu time    0.2453: real time    0.0082
    --------------------------------------------
      LOOP:  cpu time    8.8503: real time    0.4321

 eigenvalue-minimisations  :    52
 total energy-change (2. order) :-0.1152540E-03  (-0.1205858E-05)
 number of electron      12.0000097 magnetization       2.0000088
 augmentation part        1.0846209 magnetization       0.4916072

 Broyden mixing:
  rms(total) = 0.61424E-03    rms(broyden)= 0.61411E-03
  rms(prec ) = 0.15885E-02
  weight for this iteration     100.00

 eigenvalues of (default mixing * dielectric matrix)
  average eigenvalue GAMMA=   1.1971
  2.5680  1.3922  1.0747  0.8112  0.6957  0.6409

 Free energy of the ion-electron system (eV)
  ---------------------------------------------------
  alpha Z        PSCENC =         1.08558169
  Ewald energy   TEWEN  =        27.54247241
  -Hartree energ DENC   =      -767.95091703
  -exchange      EXHF   =         0.00000000
  -V(xc)+E(xc)   XCENC  =        54.72056036
  PAW double counting   =       840.00248037     -843.39707430
  entropy T*S    EENTRO =        -0.00000000
  eigenvalues    EBANDS =      -186.15285154
  atomic energy  EATOM  =       864.52639207
  Solvation  Ediel_sol  =         0.00000000
  ---------------------------------------------------
  free energy    TOTEN  =        -9.62335597 eV

  energy without entropy =       -9.62335597  energy(sigma->0) =       -9.62335597


--------------------------------------------------------------------------------------------------------




----------------------------------------- Iteration    2(   8)  ---------------------------------------


    POTLOK:  cpu time    4.6024: real time    0.2726
    SETDIJ:  cpu time    0.0056: real time    0.0056
     EDDAV:  cpu time    2.8242: real time    0.1029
       DOS:  cpu time    0.0042: real time    0.0001
    --------------------------------------------
      LOOP:  cpu time    7.4762: real time    0.3826

 eigenvalue-minimisations  :    56
 total energy-change (2. order) :-0.9647326E-04  (-0.4789940E-06)
 number of electron      12.0000097 magnetization       2.0000088
 augmentation part        1.0846209 magnetization       0.4916072

 Free energy of the ion-electron system (eV)
  ---------------------------------------------------
  alpha Z        PSCENC =         1.08558169
  Ewald energy   TEWEN  =        27.54247241
  -Hartree energ DENC   =      -767.94236393
  -exchange      EXHF   =         0.00000000
  -V(xc)+E(xc)   XCENC  =        54.72005563
  PAW double counting   =       839.99621037     -843.39098417
  entropy T*S    EENTRO =        -0.00000000
  eigenvalues    EBANDS =      -186.16081651
  atomic energy  EATOM  =       864.52639207
  Solvation  Ediel_sol  =         0.00000000
  ---------------------------------------------------
  free energy    TOTEN  =        -9.62345244 eV

  energy without entropy =       -9.62345244  energy(sigma->0) =       -9.62345244


--------------------------------------------------------------------------------------------------------




 average (electrostatic) potential at core
  the test charge radii are     0.7215
  (the norm of the test charge is              1.0000)
       1 -83.6312       2 -83.6313
 
 
 
 E-fermi :  -6.4106     XC(G=0):  -1.0644     alpha+bet : -0.2925


 spin component 1

 k-point     1 :       0.0000    0.0000    0.0000
  band No.  band energies     occupation 
      1     -30.6313      1.00000
      2     -21.1645      1.00000
      3     -12.9976      1.00000
      4     -12.3760      1.00000
      5     -12.3760      1.00000
      6      -7.3642      1.00000
      7      -7.3642      1.00000
      8      -0.3716      0.00000
      9       0.0101      0.00000
     10       1.8170      0.00000
     11       1.8170      0.00000
     12       1.8856      0.00000

 spin component 2

 k-point     1 :       0.0000    0.0000    0.0000
  band No.  band energies     occupation 
      1     -29.3429      1.00000
      2     -19.3620      1.00000
      3     -12.1280      1.00000
      4     -10.5270      1.00000
      5     -10.5270      1.00000
      6      -5.1134      0.00000
      7      -5.1134      0.00000
      8      -0.2714      0.00000
      9       0.8546      0.00000
     10       1.9187      0.00000
     11       1.9531      0.00000
     12       1.9531      0.00000


--------------------------------------------------------------------------------------------------------


 soft charge-density along one line, spin component           1
         0         1         2         3         4         5         6         7         8         9
 total charge-density along one line
 
 soft charge-density along one line, spin component           2
         0         1         2         3         4         5         6         7         8         9
 total charge-density along one line
 
 pseudopotential strength for first ion, spin component:           1
 14.525 -17.860  -0.000  -0.099  -0.000   0.000   0.124   0.000
-17.860  21.995   0.000   0.127   0.000  -0.000  -0.160  -0.000
 -0.000   0.000 -11.400  -0.000   0.000  14.286   0.000  -0.000
 -0.099   0.127  -0.000 -11.376   0.000   0.000  14.242  -0.000
 -0.000   0.000   0.000   0.000 -11.400  -0.000  -0.000  14.286
  0.000  -0.000  14.286   0.000  -0.000 -17.863  -0.000   0.000
  0.124  -0.160   0.000  14.242  -0.000  -0.000 -17.790   0.000
  0.000  -0.000  -0.000  -0.000  14.286   0.000   0.000 -17.863
 pseudopotential strength for first ion, spin component:           2
 13.999 -17.181  -0.000  -0.097  -0.000   0.000   0.122   0.000
-17.181  21.118   0.000   0.124   0.000  -0.000  -0.157  -0.000
 -0.000   0.000 -10.796   0.000   0.000  13.439  -0.000  -0.000
 -0.097   0.124   0.000 -11.163   0.000  -0.000  13.945  -0.000
 -0.000   0.000   0.000   0.000 -10.796  -0.000  -0.000  13.439
  0.000  -0.000  13.439  -0.000  -0.000 -16.670   0.000   0.000
  0.122  -0.157  -0.000  13.945  -0.000   0.000 -17.371   0.000
  0.000  -0.000  -0.000  -0.000  13.439   0.000   0.000 -16.670
 total augmentation occupancy for first ion, spin component:           1
  2.496   0.296   0.000   0.334  -0.000   0.000   0.163   0.000
  0.296   0.133   0.000   0.417  -0.000   0.000   0.118   0.000
  0.000   0.000   1.694   0.000   0.000   0.087  -0.000   0.000
  0.334   0.417  -0.000   2.109   0.000  -0.000   0.427   0.000
 -0.000  -0.000   0.000   0.000   1.694   0.000   0.000   0.087
  0.000   0.000   0.087   0.000   0.000   0.020  -0.000   0.000
  0.163   0.118  -0.000   0.427   0.000  -0.000   0.111   0.000
  0.000   0.000   0.000   0.000   0.087   0.000   0.000   0.020
 total augmentation occupancy for first ion, spin component:           2
 -0.097  -0.055   0.000  -0.009  -0.000   0.000  -0.012   0.000
 -0.055  -0.009   0.000  -0.007  -0.000   0.000  -0.005   0.000
  0.000   0.000   0.399   0.000   0.000  -0.073   0.000   0.000
 -0.009  -0.007   0.000  -0.033  -0.000   0.000  -0.017   0.000
 -0.000  -0.000   0.000   0.000   0.399   0.000  -0.000  -0.073
  0.000   0.000  -0.073   0.000   0.000   0.001  -0.000   0.000
 -0.012  -0.005   0.000  -0.017  -0.000  -0.000  -0.005   0.000
 -0.000   0.000   0.000   0.000  -0.073   0.000   0.000   0.001


------------------------ aborting loop because EDIFF is reached ----------------------------------------


    CHARGE:  cpu time    0.8412: real time    0.0284
    FORLOC:  cpu time    0.1307: real time    0.0044
    FORNL :  cpu time    0.4723: real time    0.0160
    STRESS:  cpu time    1.5729: real time    0.0529
    FORCOR:  cpu time    2.6079: real time    0.2766
    FORHAR:  cpu time    0.0238: real time    0.0238
    MIXING:  cpu time    0.0089: real time    0.0090
    OFIELD:  cpu time    0.0002: real time    0.0002

  FORCE on cell =-STRESS in cart. coord.  units (eV):
  Direction    XX          YY          ZZ          XY          YZ          ZX
  --------------------------------------------------------------------------------------
  Alpha Z     1.08558     1.08558     1.08558
  Ewald    -124.31392  -124.31392   276.17024     0.00000    -0.00000    -0.00000
  Hartree   187.97355   187.97355   391.99640    -0.00000    -0.00000    -0.00000
  E(xc)     -58.48475   -58.48475   -57.41805     0.00000     0.00000    -0.00000
  Local    -246.29464  -246.29464  -813.34910    -0.00000     0.00000    -0.00000
  n-local   -43.79791   -43.79791   -44.71685     0.00000     0.00000     0.00000
  augment    12.59754    12.59754    10.03697     0.00000     0.00000     0.00000
  Kinetic   269.67158   269.67158   228.88099     0.00000    -0.00000     0.00000
  Fock        0.00000     0.00000     0.00000     0.00000     0.00000     0.00000
  -------------------------------------------------------------------------------------
  Total      -1.56297    -1.56297    -7.31383     0.00000    -0.00000     0.00000
  in kB      -4.89092    -4.89092   -22.88681     0.00000    -0.00000     0.00000
  external pressure =      -10.89 kB  Pullay stress =        0.00 kB


 VOLUME and BASIS-vectors are now :
 -----------------------------------------------------------------------------
  energy-cutoff  :      400.00
  volume of cell :      512.00
      direct lattice vectors                 reciprocal lattice vectors
     8.000000000  0.000000000  0.000000000     0.125000000  0.000000000  0.000000000
     0.000000000  8.000000000  0.000000000     0.000000000  0.125000000  0.000000000
     0.000000000  0.000000000  8.000000000     0.000000000  0.000000000  0.125000000

  length of vectors
     8.000000000  8.000000000  8.000000000     0.125000000  0.125000000  0.125000000


 FORCES acting on ions
    electron-ion (+dipol)            ewald-force                    non-local-force                 convergence-correction
 -----------------------------------------------------------------------------------------------
   -.270E-14 -.614E-14 0.250E+03   -.253E-16 0.197E-16 -.289E+03   -.323E-26 0.323E-26 0.444E+02   -.511E-13 -.447E-13 -.776E-02
   -.222E-14 -.196E-13 -.250E+03   0.527E-16 0.597E-16 0.289E+03   0.323E-26 -.323E-26 -.444E+02   -.334E-13 -.337E-13 0.775E-02
 -----------------------------------------------------------------------------------------------
   -.492E-14 -.258E-13 0.206E-03   0.273E-16 0.794E-16 0.000E+00   0.000E+00 0.000E+00 -.711E-14   -.846E-13 -.784E-13 -.932E-05
 
 
 POSITION                                       TOTAL-FORCE (eV/Angst)
 -----------------------------------------------------------------------------------
      0.00000      0.00000     -0.05227        -0.000000      0.000000      4.729065
      0.00000      0.00000      1.27227         0.000000     -0.000000     -4.729065
 -----------------------------------------------------------------------------------
    total drift:                               -0.000000     -0.000000      0.000197


--------------------------------------------------------------------------------------------------------



  FREE ENERGIE OF THE ION-ELECTRON SYSTEM (eV)
  ---------------------------------------------------
  free  energy   TOTEN  =        -9.62345244 eV

  energy  without entropy=       -9.62345244  energy(sigma->0) =       -9.62345244
 
 d Force =-0.1905419E+00[-0.494E+00, 0.113E+00]  d Energy =-0.2299708E+00 0.394E-01
 d Force = 0.3303986E+02[ 0.303E+02, 0.358E+02]  d Ewald  = 0.3292664E+02 0.113E+00


--------------------------------------------------------------------------------------------------------


    POTLOK:  cpu time    0.2774: real time    0.2774


--------------------------------------------------------------------------------------------------------


 stress matrix after NEB project (eV)
     -1.56297      0.00000      0.00000
      0.00000     -1.56297     -0.00000
      0.00000     -0.00000     -7.31383
  FORCES: max atom, RMS     4.729065    4.729065
  FORCE total and by dimension    6.687908    4.729065
  Stress total and by dimension    7.640538    7.313828
 Steepest descent step on ions:
 trial-energy change:    0.229971  1 .order    0.190542   -0.113245    0.494329
  (g-gl).g = 0.113E+00      g.g   = 0.113E+00  gl.gl    = 0.000E+00
 g(Force)  = 0.113E+00   g(Stress)= 0.000E+00 ortho     = 0.000E+00
 gamma     =   0.00000
 trial     =   1.00000
 opt step  =   0.13962  (harmonic =   0.18639) maximal distance =0.00729705
 next E    =    -9.861221   (d E  =  -0.00780)


--------------------------------------------------------------------------------------------------------


    WAVPRE:  cpu time    0.0191: real time    0.0191
 FEWALD executed in parallel
    FEWALD:  cpu time    0.0003: real time    0.0003
    ORTHCH:  cpu time    0.0957: real time    0.0044
     LOOP+:  cpu time   88.1158: real time    4.5583


----------------------------------------- Iteration    3(   1)  ---------------------------------------


    POTLOK:  cpu time    5.6811: real time    0.3635
    SETDIJ:  cpu time    0.0056: real time    0.0057
     EDDAV:  cpu time    5.7858: real time    0.2027
       DOS:  cpu time    0.0050: real time    0.0002
    CHARGE:  cpu time    1.3718: real time    0.0447
    MIXING:  cpu time    0.1704: real time    0.0056
    --------------------------------------------
      LOOP:  cpu time   13.3353: real time    0.6326

 eigenvalue-minimisations  :    64
 total energy-change (2. order) :-0.1930866E+00  (-0.2390439E+01)
 number of electron      12.0000151 magnetization       2.0000085
 augmentation part        1.1441967 magnetization       0.4956201

 Broyden mixing:
  rms(total) = 0.18216E+00    rms(broyden)= 0.17806E+00
  rms(prec ) = 0.19421E+00
  weight for this iteration     100.00

 Free energy of the ion-electron system (eV)
  ---------------------------------------------------
  alpha Z        PSCENC =         1.08558169
  Ewald energy   TEWEN  =        55.52754977
  -Hartree energ DENC   =      -789.05663741
  -exchange      EXHF   =         0.00000000
  -V(xc)+E(xc)   XCENC  =        55.08485113
  PAW double counting   =       840.11791604     -843.51289312
  entropy T*S    EENTRO =        -0.00000000
  eigenvalues    EBANDS =      -193.58920273
  atomic energy  EATOM  =       864.52639207
  Solvation  Ediel_sol  =         0.00000000
  ---------------------------------------------------
  free energy    TOTEN  =        -9.81644255 eV

  energy without entropy =       -9.81644255  energy(sigma->0) =       -9.81644255


--------------------------------------------------------------------------------------------------------




----------------------------------------- Iteration    3(   2)  ---------------------------------------


    POTLOK:  cpu time    4.3009: real time    0.2850
    SETDIJ:  cpu time    0.0057: real time    0.0057
     EDDAV:  cpu time    4.1340: real time    0.1465
       DOS:  cpu time    0.0041: real time    0.0001
    CHARGE:  cpu time    0.9224: real time    0.0310
    MIXING:  cpu time    0.1749: real time    0.0059
    --------------------------------------------
      LOOP:  cpu time    9.6368: real time    0.4775

 eigenvalue-minimisations  :    60
 total energy-change (2. order) :-0.3051310E-01  (-0.5140807E-01)
 number of electron      12.0000151 magnetization       2.0000085
 augmentation part        1.1404209 magnetization       0.4937254

 Broyden mixing:
  rms(total) = 0.86098E-01    rms(broyden)= 0.85426E-01
  rms(prec ) = 0.98812E-01
  weight for this iteration     100.00

 eigenvalues of (default mixing * dielectric matrix)
  average eigenvalue GAMMA=   0.7559
  0.7559

 Free energy of the ion-electron system (eV)
  ---------------------------------------------------
  alpha Z        PSCENC =         1.08558169
  Ewald energy   TEWEN  =        55.52754977
  -Hartree energ DENC   =      -790.79392047
  -exchange      EXHF   =         0.00000000
  -V(xc)+E(xc)   XCENC  =        55.22271768
  PAW double counting   =       866.05359218     -869.51150418
  entropy T*S    EENTRO =        -0.00000000
  eigenvalues    EBANDS =      -191.95736439
  atomic energy  EATOM  =       864.52639207
  Solvation  Ediel_sol  =         0.00000000
  ---------------------------------------------------
  free energy    TOTEN  =        -9.84695565 eV

  energy without entropy =       -9.84695565  energy(sigma->0) =       -9.84695565


--------------------------------------------------------------------------------------------------------




----------------------------------------- Iteration    3(   3)  ---------------------------------------


    POTLOK:  cpu time    4.6117: real time    0.2857
    SETDIJ:  cpu time    0.0057: real time    0.0057
     EDDAV:  cpu time    9.3086: real time    0.3176
       DOS:  cpu time    0.0100: real time    0.0003
    CHARGE:  cpu time    1.7045: real time    0.0563
    MIXING:  cpu time    0.2628: real time    0.0086
    --------------------------------------------
      LOOP:  cpu time   15.9607: real time    0.6759

 eigenvalue-minimisations  :    64
 total energy-change (2. order) :-0.1023136E-01  (-0.2008398E-02)
 number of electron      12.0000150 magnetization       2.0000084
 augmentation part        1.1361322 magnetization       0.4927897

 Broyden mixing:
  rms(total) = 0.38429E-01    rms(broyden)= 0.38355E-01
  rms(prec ) = 0.45064E-01
  weight for this iteration     100.00

 eigenvalues of (default mixing * dielectric matrix)
  average eigenvalue GAMMA=   1.0713
  1.3998  0.7428

 Free energy of the ion-electron system (eV)
  ---------------------------------------------------
  alpha Z        PSCENC =         1.08558169
  Ewald energy   TEWEN  =        55.52754977
  -Hartree energ DENC   =      -792.02063990
  -exchange      EXHF   =         0.00000000
  -V(xc)+E(xc)   XCENC  =        55.28382068
  PAW double counting   =       876.71955234     -880.20168310
  entropy T*S    EENTRO =        -0.00000000
  eigenvalues    EBANDS =      -190.77776055
  atomic energy  EATOM  =       864.52639207
  Solvation  Ediel_sol  =         0.00000000
  ---------------------------------------------------
  free energy    TOTEN  =        -9.85718701 eV

  energy without entropy =       -9.85718701  energy(sigma->0) =       -9.85718701


--------------------------------------------------------------------------------------------------------




----------------------------------------- Iteration    3(   4)  ---------------------------------------


    POTLOK:  cpu time    4.0010: real time    0.3168
    SETDIJ:  cpu time    0.0059: real time    0.0059
     EDDAV:  cpu time    3.6632: real time    0.1288
       DOS:  cpu time    0.0048: real time    0.0002
    CHARGE:  cpu time    1.0069: real time    0.0331
    MIXING:  cpu time    0.2260: real time    0.0075
    --------------------------------------------
      LOOP:  cpu time    8.9634: real time    0.4942

 eigenvalue-minimisations  :    56
 total energy-change (2. order) :-0.2741068E-02  (-0.8770317E-03)
 number of electron      12.0000150 magnetization       2.0000084
 augmentation part        1.1326336 magnetization       0.4912662

 Broyden mixing:
  rms(total) = 0.13200E-01    rms(broyden)= 0.13164E-01
  rms(prec ) = 0.15012E-01
  weight for this iteration     100.00

 eigenvalues of (default mixing * dielectric matrix)
  average eigenvalue GAMMA=   1.1068
  1.6891  0.9324  0.6991

 Free energy of the ion-electron system (eV)
  ---------------------------------------------------
  alpha Z        PSCENC =         1.08558169
  Ewald energy   TEWEN  =        55.52754977
  -Hartree energ DENC   =      -793.00718037
  -exchange      EXHF   =         0.00000000
  -V(xc)+E(xc)   XCENC  =        55.33787617
  PAW double counting   =       890.18025982     -893.68217655
  entropy T*S    EENTRO =        -0.00000000
  eigenvalues    EBANDS =      -189.82823069
  atomic energy  EATOM  =       864.52639207
  Solvation  Ediel_sol  =         0.00000000
  ---------------------------------------------------
  free energy    TOTEN  =        -9.85992808 eV

  energy without entropy =       -9.85992808  energy(sigma->0) =       -9.85992808


--------------------------------------------------------------------------------------------------------




----------------------------------------- Iteration    3(   5)  ---------------------------------------


    POTLOK:  cpu time    4.6441: real time    0.2991
    SETDIJ:  cpu time    0.0057: real time    0.0057
     EDDAV:  cpu time    3.6086: real time    0.1271
       DOS:  cpu time    0.0050: real time    0.0002
    CHARGE:  cpu time    1.0395: real time    0.0345
    MIXING:  cpu time    0.2405: real time    0.0081
    --------------------------------------------
      LOOP:  cpu time    9.5906: real time    0.4764

 eigenvalue-minimisations  :    56
 total energy-change (2. order) :-0.6785171E-03  (-0.4650229E-04)
 number of electron      12.0000150 magnetization       2.0000084
 augmentation part        1.1331587 magnetization       0.4913821

 Broyden mixing:
  rms(total) = 0.68482E-02    rms(broyden)= 0.68476E-02
  rms(prec ) = 0.80735E-02
  weight for this iteration     100.00

 eigenvalues of (default mixing * dielectric matrix)
  average eigenvalue GAMMA=   1.1665
  1.8041  1.3740  0.8093  0.6787

 Free energy of the ion-electron system (eV)
  ---------------------------------------------------
  alpha Z        PSCENC =         1.08558169
  Ewald energy   TEWEN  =        55.52754977
  -Hartree energ DENC   =      -792.83006111
  -exchange      EXHF   =         0.00000000
  -V(xc)+E(xc)   XCENC  =        55.32734277
  PAW double counting   =       892.96312668     -896.46191110
  entropy T*S    EENTRO =        -0.00000000
  eigenvalues    EBANDS =      -189.99862738
  atomic energy  EATOM  =       864.52639207
  Solvation  Ediel_sol  =         0.00000000
  ---------------------------------------------------
  free energy    TOTEN  =        -9.86060659 eV

  energy without entropy =       -9.86060659  energy(sigma->0) =       -9.86060659


--------------------------------------------------------------------------------------------------------




----------------------------------------- Iteration    3(   6)  ---------------------------------------


    POTLOK:  cpu time    4.6242: real time    0.3076
    SETDIJ:  cpu time    0.0057: real time    0.0057
     EDDAV:  cpu time    3.9117: real time    0.1382
       DOS:  cpu time    0.0044: real time    0.0001
    CHARGE:  cpu time    1.0539: real time    0.0346
    MIXING:  cpu time    0.3694: real time    0.0121
    --------------------------------------------
      LOOP:  cpu time   10.0159: real time    0.5000

 eigenvalue-minimisations  :    64
 total energy-change (2. order) :-0.1155638E-03  (-0.7611405E-05)
 number of electron      12.0000150 magnetization       2.0000084
 augmentation part        1.1332890 magnetization       0.4914848

 Broyden mixing:
  rms(total) = 0.24754E-02    rms(broyden)= 0.24746E-02
  rms(prec ) = 0.31060E-02
  weight for this iteration     100.00

 eigenvalues of (default mixing * dielectric matrix)
  average eigenvalue GAMMA=   1.2316
  2.4206  1.3415  1.0167  0.7280  0.6514

 Free energy of the ion-electron system (eV)
  ---------------------------------------------------
  alpha Z        PSCENC =         1.08558169
  Ewald energy   TEWEN  =        55.52754977
  -Hartree energ DENC   =      -792.74785893
  -exchange      EXHF   =         0.00000000
  -V(xc)+E(xc)   XCENC  =        55.32355801
  PAW double counting   =       896.67080176     -900.16937701
  entropy T*S    EENTRO =        -0.00000000
  eigenvalues    EBANDS =      -190.07736954
  atomic energy  EATOM  =       864.52639207
  Solvation  Ediel_sol  =         0.00000000
  ---------------------------------------------------
  free energy    TOTEN  =        -9.86072216 eV

  energy without entropy =       -9.86072216  energy(sigma->0) =       -9.86072216


--------------------------------------------------------------------------------------------------------




----------------------------------------- Iteration    3(   7)  ---------------------------------------


    POTLOK:  cpu time    4.4697: real time    0.2836
    SETDIJ:  cpu time    0.0056: real time    0.0056
     EDDAV:  cpu time    8.3088: real time    0.2792
       DOS:  cpu time    0.0160: real time    0.0005
    CHARGE:  cpu time    4.3333: real time    0.1417
    MIXING:  cpu time    0.5548: real time    0.0182
    --------------------------------------------
      LOOP:  cpu time   17.7532: real time    0.7311

 eigenvalue-minimisations  :    64
 total energy-change (2. order) :-0.1244959E-03  (-0.1682060E-05)
 number of electron      12.0000150 magnetization       2.0000084
 augmentation part        1.1332518 magnetization       0.4914631

 Broyden mixing:
  rms(total) = 0.53898E-03    rms(broyden)= 0.53875E-03
  rms(prec ) = 0.12790E-02
  weight for this iteration     100.00

 eigenvalues of (default mixing * dielectric matrix)
  average eigenvalue GAMMA=   1.1838
  2.5411  1.2197  1.2197  0.7909  0.6991  0.6323

 Free energy of the ion-electron system (eV)
  ---------------------------------------------------
  alpha Z        PSCENC =         1.08558169
  Ewald energy   TEWEN  =        55.52754977
  -Hartree energ DENC   =      -792.74949958
  -exchange      EXHF   =         0.00000000
  -V(xc)+E(xc)   XCENC  =        55.32410387
  PAW double counting   =       898.04893574     -901.54789560
  entropy T*S    EENTRO =        -0.00000000
  eigenvalues    EBANDS =      -190.07601462
  atomic energy  EATOM  =       864.52639207
  Solvation  Ediel_sol  =         0.00000000
  ---------------------------------------------------
  free energy    TOTEN  =        -9.86084665 eV

  energy without entropy =       -9.86084665  energy(sigma->0) =       -9.86084665


--------------------------------------------------------------------------------------------------------




----------------------------------------- Iteration    3(   8)  ---------------------------------------


    POTLOK:  cpu time    1.3460: real time    0.3025
    SETDIJ:  cpu time    0.0057: real time    0.0057
     EDDAV:  cpu time    3.3410: real time    0.1217
       DOS:  cpu time    0.0042: real time    0.0001
    --------------------------------------------
      LOOP:  cpu time    4.7534: real time    0.4319

 eigenvalue-minimisations  :    64
 total energy-change (2. order) :-0.5839598E-04  (-0.2187602E-06)
 number of electron      12.0000150 magnetization       2.0000084
 augmentation part        1.1332518 magnetization       0.4914631

 Free energy of the ion-electron system (eV)
  ---------------------------------------------------
  alpha Z        PSCENC =         1.08558169
  Ewald energy   TEWEN  =        55.52754977
  -Hartree energ DENC   =      -792.74890737
  -exchange      EXHF   =         0.00000000
  -V(xc)+E(xc)   XCENC  =        55.32410004
  PAW double counting   =       898.10835628     -901.60737847
  entropy T*S    EENTRO =        -0.00000000
  eigenvalues    EBANDS =      -190.07659906
  atomic energy  EATOM  =       864.52639207
  Solvation  Ediel_sol  =         0.00000000
  ---------------------------------------------------
  free energy    TOTEN  =        -9.86090505 eV

  energy without entropy =       -9.86090505  energy(sigma->0) =       -9.86090505


--------------------------------------------------------------------------------------------------------




 average (electrostatic) potential at core
  the test charge radii are     0.7215
  (the norm of the test charge is              1.0000)
       1 -83.6868       2 -83.6866
 
 
 
 E-fermi :  -5.7998     XC(G=0):  -1.0786     alpha+bet : -0.2925


 spin component 1

 k-point     1 :       0.0000    0.0000    0.0000
  band No.  band energies     occupation 
      1     -32.3098      1.00000
      2     -20.4573      1.00000
      3     -13.2156      1.00000
      4     -13.0607      1.00000
      5     -13.0607      1.00000
      6      -6.7523      1.00000
      7      -6.7523      1.00000
      8      -0.4084      0.00000
      9       1.3492      0.00000
     10       1.7668      0.00000
     11       1.7668      0.00000
     12       1.9786      0.00000

 spin component 2

 k-point     1 :       0.0000    0.0000    0.0000
  band No.  band energies     occupation 
      1     -31.0837      1.00000
      2     -18.6607      1.00000
      3     -12.2888      1.00000
      4     -11.2173      1.00000
      5     -11.2173      1.00000
      6      -4.4783      0.00000
      7      -4.4783      0.00000
      8      -0.2718      0.00000
      9       1.7293      0.00000
     10       1.9423      0.00000
     11       1.9423      0.00000
     12       2.0418      0.00000


--------------------------------------------------------------------------------------------------------


 soft charge-density along one line, spin component           1
         0         1         2         3         4         5         6         7         8         9
 total charge-density along one line
 
 soft charge-density along one line, spin component           2
         0         1         2         3         4         5         6         7         8         9
 total charge-density along one line
 
 pseudopotential strength for first ion, spin component:           1
 14.533 -17.869  -0.000  -0.129  -0.000   0.000   0.161   0.000
-17.869  22.005   0.000   0.164   0.000  -0.000  -0.207  -0.000
 -0.000   0.000 -11.393  -0.000  -0.000  14.274   0.000   0.000
 -0.129   0.164  -0.000 -11.395   0.000   0.000  14.265  -0.000
 -0.000   0.000  -0.000   0.000 -11.393   0.000  -0.000  14.274
  0.000  -0.000  14.274   0.000   0.000 -17.843  -0.000  -0.000
  0.161  -0.207   0.000  14.265  -0.000  -0.000 -17.815   0.000
  0.000  -0.000   0.000  -0.000  14.274  -0.000   0.000 -17.843
 pseudopotential strength for first ion, spin component:           2
 14.006 -17.189  -0.000  -0.128  -0.000   0.000   0.161   0.000
-17.189  21.128   0.000   0.163   0.000  -0.000  -0.205  -0.000
 -0.000   0.000 -10.785   0.000   0.000  13.421  -0.000  -0.000
 -0.128   0.163   0.000 -11.184   0.000  -0.000  13.969  -0.000
 -0.000   0.000   0.000   0.000 -10.785  -0.000  -0.000  13.421
  0.000  -0.000  13.421  -0.000  -0.000 -16.641   0.000   0.000
  0.161  -0.205  -0.000  13.969  -0.000   0.000 -17.398   0.000
  0.000  -0.000  -0.000  -0.000  13.421   0.000   0.000 -16.641
 total augmentation occupancy for first ion, spin component:           1
  2.676   0.411   0.000   0.512   0.000   0.000   0.249  -0.000
  0.411   0.189   0.000   0.538   0.000   0.000   0.166  -0.000
  0.000   0.000   1.754   0.000   0.000   0.111   0.000   0.000
  0.512   0.538   0.000   2.445  -0.000   0.000   0.551  -0.000
  0.000   0.000   0.000  -0.000   1.754   0.000   0.000   0.111
  0.000   0.000   0.111   0.000   0.000   0.030   0.000   0.000
  0.249   0.166   0.000   0.551   0.000   0.000   0.155  -0.000
 -0.000  -0.000   0.000  -0.000   0.111   0.000  -0.000   0.030
 total augmentation occupancy for first ion, spin component:           2
 -0.104  -0.060   0.000  -0.017   0.000  -0.000  -0.015   0.000
 -0.060  -0.011   0.000  -0.010   0.000   0.000  -0.006   0.000
  0.000   0.000   0.364  -0.000   0.000  -0.084   0.000   0.000
 -0.017  -0.010  -0.000  -0.037   0.000  -0.000  -0.019   0.000
  0.000   0.000   0.000   0.000   0.364   0.000   0.000  -0.084
 -0.000   0.000  -0.084  -0.000   0.000   0.003   0.000   0.000
 -0.015  -0.006   0.000  -0.019   0.000   0.000  -0.006  -0.000
  0.000   0.000   0.000   0.000  -0.084   0.000  -0.000   0.003


------------------------ aborting loop because EDIFF is reached ----------------------------------------


    CHARGE:  cpu time    0.8827: real time    0.0291
    FORLOC:  cpu time    0.1360: real time    0.0045
    FORNL :  cpu time    0.4871: real time    0.0160
    STRESS:  cpu time    1.6086: real time    0.0527
    FORCOR:  cpu time    2.6003: real time    0.2715
    FORHAR:  cpu time    0.0239: real time    0.0239
    MIXING:  cpu time    0.0088: real time    0.0088
    OFIELD:  cpu time    0.0001: real time    0.0001

  FORCE on cell =-STRESS in cart. coord.  units (eV):
  Direction    XX          YY          ZZ          XY          YZ          ZX
  --------------------------------------------------------------------------------------
  Alpha Z     1.08558     1.08558     1.08558
  Ewald    -124.10385  -124.10385   303.73517     0.00000     0.00000     0.00000
  Hartree   196.69934   196.69934   399.34568    -0.00000    -0.00000    -0.00000
  E(xc)     -59.09370   -59.09370   -57.93460     0.00000    -0.00000     0.00000
  Local    -256.67878  -256.67878  -842.79329    -0.00000     0.00000    -0.00000
  n-local   -44.20802   -44.20802   -47.63831     0.00000     0.00000     0.00000
  augment    12.94120    12.94120    10.38503     0.00000    -0.00000     0.00000
  Kinetic   271.79112   271.79112   232.61402    -0.00000    -0.00000     0.00000
  Fock        0.00000     0.00000     0.00000     0.00000     0.00000     0.00000
  -------------------------------------------------------------------------------------
  Total      -1.56711    -1.56711    -1.20071     0.00000     0.00000     0.00000
  in kB      -4.90389    -4.90389    -3.75731     0.00000     0.00000     0.00000
  external pressure =       -4.52 kB  Pullay stress =        0.00 kB


 VOLUME and BASIS-vectors are now :
 -----------------------------------------------------------------------------
  energy-cutoff  :      400.00
  volume of cell :      512.00
      direct lattice vectors                 reciprocal lattice vectors
     8.000000000  0.000000000  0.000000000     0.125000000  0.000000000  0.000000000
     0.000000000  8.000000000  0.000000000     0.000000000  0.125000000  0.000000000
     0.000000000  0.000000000  8.000000000     0.000000000  0.000000000  0.125000000

  length of vectors
     8.000000000  8.000000000  8.000000000     0.125000000  0.125000000  0.125000000


 FORCES acting on ions
    electron-ion (+dipol)            ewald-force                    non-local-force                 convergence-correction
 -----------------------------------------------------------------------------------------------
   -.557E-14 0.140E-13 0.283E+03   -.850E-16 -.850E-16 -.334E+03   -.162E-26 0.162E-26 0.519E+02   -.631E-13 -.419E-13 0.917E-02
   0.477E-14 0.150E-14 -.283E+03   0.112E-15 0.164E-15 0.334E+03   0.162E-26 -.162E-26 -.519E+02   -.375E-13 -.551E-13 -.916E-02
 -----------------------------------------------------------------------------------------------
   -.804E-15 0.154E-13 -.189E-03   0.273E-16 0.794E-16 0.000E+00   0.000E+00 0.000E+00 0.000E+00   -.101E-12 -.970E-13 0.132E-04
 
 
 POSITION                                       TOTAL-FORCE (eV/Angst)
 -----------------------------------------------------------------------------------
      0.00000      0.00000     -0.00730        -0.000000      0.000000      0.023803
      0.00000      0.00000      1.22730         0.000000     -0.000000     -0.023803
 -----------------------------------------------------------------------------------
    total drift:                               -0.000000     -0.000000     -0.000176


--------------------------------------------------------------------------------------------------------



  FREE ENERGIE OF THE ION-ELECTRON SYSTEM (eV)
  ---------------------------------------------------
  free  energy   TOTEN  =        -9.86090505 eV

  energy  without entropy=       -9.86090505  energy(sigma->0) =       -9.86090505
 
 d Force = 0.2137268E+00[ 0.214E-02, 0.425E+00]  d Energy = 0.2374526E+00-0.237E-01
 d Force =-0.2805549E+02[-0.301E+02,-0.260E+02]  d Ewald  =-0.2798508E+02-0.704E-01


--------------------------------------------------------------------------------------------------------


    POTLOK:  cpu time    0.2839: real time    0.2840


--------------------------------------------------------------------------------------------------------


 stress matrix after NEB project (eV)
     -1.56711     -0.00000      0.00000
      0.00000     -1.56711      0.00000
      0.00000      0.00000     -1.20071
  FORCES: max atom, RMS     0.023803    0.023803
  FORCE total and by dimension    0.033663    0.023803
  Stress total and by dimension    2.520592    1.567113


--------------------------------------------------------------------------------------------------------


  
 reached required accuracy - stopping structural energy minimisation
 writing wavefunctions
     LOOP+:  cpu time   96.3415: real time    5.1368
    4ORBIT:  cpu time    0.0001: real time    0.0000

 total amount of memory used by VASP on root node    64371. kBytes
========================================================================

   base      :      30000. kBytes
   nonl-proj :        447. kBytes
   fftplans  :       9062. kBytes
   grid      :      23961. kBytes
   one-center:          6. kBytes
   wavefun   :        895. kBytes
 
  
  
 General timing and accounting informations for this job:
 ========================================================
  
                  Total CPU time used (sec):      393.995
                            User time (sec):      365.760
                          System time (sec):       28.235
                         Elapsed time (sec):       25.031
  
                   Maximum memory used (kb):      129356.
                   Average memory used (kb):           0.
  
                          Minor page faults:       172117
                          Major page faults:          149
                 Voluntary context switches:         2780
