    2    2    5    1
  0.2560000E+03  0.8000000E-09  0.8000000E-09  0.8000000E-09  0.5000000E-15
  1.000000000000000E-004
  CAR 
 CO dimer in a box                       
     10      1     10
 
  0.0000000E+00  0.0000000E+00  0.0000000E+00  0.1000000E+01
    1      -28.941605   1.000000
    2      -13.778061   1.000000
    3      -11.449931   1.000000
    4      -11.449931   1.000000
    5       -8.712466   1.000000
    6       -1.705630   0.000000
    7       -1.705628   0.000000
    8       -0.171768   0.000000
    9        1.746251   0.000000
   10        1.967441   0.000000
