 vasp.5.4.1 05Feb16 (build Nov 22 2023 12:07:42) gamma-only                     
  
 executed on           IFC91_ompi date 2026.09.22  14:20:41
 running on    2 total cores
 distrk:  each k-point on    2 cores,    1 groups
 distr:  one band on NCORES_PER_BAND=   1 cores,    2 groups


--------------------------------------------------------------------------------------------------------


 INCAR:
 POTCAR:    PAW_PBE C_h 06Feb2004                 
 POTCAR:    PAW_PBE O_h 06Feb2004                 
 POTCAR:    PAW_PBE C_h 06Feb2004                 
   VRHFIN =C: s2p2                                                              
   LEXCH  = PE                                                                  
   EATOM  =   147.1560 eV,   10.8157 Ry                                         
                                                                                
   TITEL  = PAW_PBE C_h 06Feb2004                                               
   LULTRA =        F    use ultrasoft PP ?                                      
   IUNSCR =        1    unscreen: 0-lin 1-nonlin 2-no                           
   RPACOR =    0.800    partial core radius                                     
   POMASS =   12.011; ZVAL   =    4.000    mass and valenz                      
   RCORE  =    1.100    outmost cutoff radius                                   
   RWIGS  =    1.630; RWIGS  =    0.863    wigner-seitz radius (au A)           
   ENMAX  =  700.000; ENMIN  =  500.000 eV                                      
   ICORE  =        2    local potential                                         
   LCOR   =        T    correct aug charges                                     
   LPAW   =        T    paw PP                                                  
   EAUG   =  946.768                                                            
   DEXC   =    0.000                                                            
   RMAX   =    1.128    core radius for proj-oper                               
   RAUG   =    1.300    factor for augmentation sphere                          
   RDEP   =    1.162    radius for radial grids                                 
   RDEPT  =    1.088    core radius for aug-charge                              
                                                                                
   Atomic configuration                                                         
    4 entries                                                                   
     n  l   j            E        occ.                                          
     1  0  0.50      -273.3789   2.0000                                         
     2  0  0.50       -13.7508   2.0000                                         
     2  1  0.50        -5.2854   2.0000                                         
     3  2  1.50        -5.4423   0.0000                                         
   Description                                                                  
     l       E           TYP  RCUT    TYP  RCUT                                 
     0    -13.7508458     23  1.100                                             
     0     -8.2022199     23  1.100                                             
     1     -5.2854383     23  1.100                                             
     1      1.1560700     23  1.100                                             
     2     -5.4423304      7  1.100                                             
  local pseudopotential read in
  partial core-charges read in
  partial kinetic energy density read in
  atomic valenz-charges read in
  non local Contribution for L=           0  read in
    real space projection operators read in
  non local Contribution for L=           0  read in
    real space projection operators read in
  non local Contribution for L=           1  read in
    real space projection operators read in
  non local Contribution for L=           1  read in
    real space projection operators read in
    PAW grid and wavefunctions read in
 
   number of l-projection  operators is LMAX  =           4
   number of lm-projection operators is LMMAX =           8
 
 POTCAR:    PAW_PBE O_h 06Feb2004                 
   VRHFIN =O: s2p4                                                              
   LEXCH  = PE                                                                  
   EATOM  =   432.3788 eV,   31.7789 Ry                                         
                                                                                
   TITEL  = PAW_PBE O_h 06Feb2004                                               
   LULTRA =        F    use ultrasoft PP ?                                      
   IUNSCR =        1    unscreen: 0-lin 1-nonlin 2-no                           
   RPACOR =    0.800    partial core radius                                     
   POMASS =   16.000; ZVAL   =    6.000    mass and valenz                      
   RCORE  =    1.100    outmost cutoff radius                                   
   RWIGS  =    1.400; RWIGS  =    0.741    wigner-seitz radius (au A)           
   ENMAX  =  700.000; ENMIN  =  500.000 eV                                      
   ICORE  =        2    local potential                                         
   LCOR   =        T    correct aug charges                                     
   LPAW   =        T    paw PP                                                  
   EAUG   =  888.804                                                            
   DEXC   =    0.000                                                            
   RMAX   =    1.128    core radius for proj-oper                               
   RAUG   =    1.300    factor for augmentation sphere                          
   RDEP   =    1.125    radius for radial grids                                 
   RDEPT  =    1.088    core radius for aug-charge                              
                                                                                
   Atomic configuration                                                         
    4 entries                                                                   
     n  l   j            E        occ.                                          
     1  0  0.50      -514.6923   2.0000                                         
     2  0  0.50       -23.9615   2.0000                                         
     2  1  0.50        -9.0305   4.0000                                         
     3  2  1.50        -9.5241   0.0000                                         
   Description                                                                  
     l       E           TYP  RCUT    TYP  RCUT                                 
     0    -23.9615319     23  1.100                                             
     0    -25.3221145     23  1.100                                             
     1     -9.0304911     23  1.100                                             
     1     -5.4802209     23  1.100                                             
     2     -9.5240782      7  1.100                                             
  local pseudopotential read in
  partial core-charges read in
  partial kinetic energy density read in
  atomic valenz-charges read in
  non local Contribution for L=           0  read in
    real space projection operators read in
  non local Contribution for L=           0  read in
    real space projection operators read in
  non local Contribution for L=           1  read in
    real space projection operators read in
  non local Contribution for L=           1  read in
    real space projection operators read in
    PAW grid and wavefunctions read in
 
   number of l-projection  operators is LMAX  =           4
   number of lm-projection operators is LMMAX =           8
 
  PAW_PBE C_h 06Feb2004                 :
 energy of atom  1       EATOM= -147.1560
 kinetic energy error for atom=    0.0286 (will be added to EATOM!!)
  PAW_PBE O_h 06Feb2004                 :
 energy of atom  2       EATOM= -432.3788
 kinetic energy error for atom=    0.1855 (will be added to EATOM!!)
 
 
 POSCAR: CO dimer in a box                       
  positions in cartesian coordinates
  No initial velocities read in
 exchange correlation table for  LEXCH =        8
   RHO(1)=    0.500       N(1)  =     2000
   RHO(2)=  100.500       N(2)  =     4000

 VTST: version 3.2, (02/03/18)

 CHAIN: initializing optimizer
 
 OPT: Using VASP Conjugate-Gradient optimizer
 CHAIN: Read ICHAIN            0
 
 POSCAR: CO dimer in a box                       
  positions in cartesian coordinates
  No initial velocities read in
 


--------------------------------------------------------------------------------------------------------


 ion  position               nearest neighbor table
   1  0.000  0.000  0.000-   2 1.14
   2  0.000  0.000  0.143-   1 1.14
 
  LATTYP: Found a simple cubic cell.
 ALAT       =     8.0000000000
  
  Lattice vectors:
  
 A1 = (   8.0000000000,   0.0000000000,   0.0000000000)
 A2 = (   0.0000000000,   8.0000000000,   0.0000000000)
 A3 = (   0.0000000000,   0.0000000000,   8.0000000000)


Analysis of symmetry for initial positions (statically):
=====================================================================
 Subroutine PRICEL returns:
 Original cell was already a primitive cell.
 

 Routine SETGRP: Setting up the symmetry group for a 
 simple cubic supercell.


 Subroutine GETGRP returns: Found  8 space group operations
 (whereof  8 operations were pure point group operations)
 out of a pool of 48 trial point group operations.


The static configuration has the point symmetry C_4v.


Analysis of symmetry for dynamics (positions and initial velocities):
=====================================================================
 Subroutine PRICEL returns:
 Original cell was already a primitive cell.
 

 Routine SETGRP: Setting up the symmetry group for a 
 simple cubic supercell.


 Subroutine GETGRP returns: Found  8 space group operations
 (whereof  8 operations were pure point group operations)
 out of a pool of 48 trial point group operations.


The dynamic configuration has the point symmetry C_4v.


Analysis of constrained symmetry for selective dynamics:
=====================================================================
 Subroutine PRICEL returns:
 Original cell was already a primitive cell.
 

 Routine SETGRP: Setting up the symmetry group for a 
 simple cubic supercell.


 Subroutine GETGRP returns: Found  8 space group operations
 (whereof  8 operations were pure point group operations)
 out of a pool of 48 trial point group operations.


The constrained configuration has the point symmetry C_4v.


 Subroutine INISYM returns: Found  8 space group operations
 (whereof  8 operations are pure point group operations),
 and found     1 'primitive' translations

 
 
 KPOINTS: Gamma-point only                        

Automatic generation of k-mesh.
Space group operators:
 irot       det(A)        alpha          n_x          n_y          n_z        tau_x        tau_y        tau_z
    1     1.000000     0.000000     1.000000     0.000000     0.000000     0.000000     0.000000     0.000000
    2     1.000000    90.000000     0.000000     0.000000    -1.000000     0.000000     0.000000     0.000000
    3     1.000000   180.000000     0.000000     0.000000     1.000000     0.000000     0.000000     0.000000
    4     1.000000    90.000000     0.000000     0.000000     1.000000     0.000000     0.000000     0.000000
    5    -1.000000   180.000000     1.000000     0.000000     0.000000     0.000000     0.000000     0.000000
    6    -1.000000   180.000000     0.707107     0.707107     0.000000     0.000000     0.000000     0.000000
    7    -1.000000   180.000000     0.000000     1.000000     0.000000     0.000000     0.000000     0.000000
    8    -1.000000   180.000000     0.707107    -0.707107     0.000000     0.000000     0.000000     0.000000
 
 Subroutine IBZKPT returns following result:
 ===========================================
 
 Found      1 irreducible k-points:
 
 Following reciprocal coordinates:
            Coordinates               Weight
  0.000000  0.000000  0.000000      1.000000
 
 Following cartesian coordinates:
            Coordinates               Weight
  0.000000  0.000000  0.000000      1.000000
 


--------------------------------------------------------------------------------------------------------




 Dimension of arrays:
   k-points           NKPTS =      1   k-points in BZ     NKDIM =      1   number of bands    NBANDS=     10
   number of dos      NEDOS =    301   number of ions     NIONS =      2
   non local maximal  LDIM  =      4   non local SUM 2l+1 LMDIM =      8
   total plane-waves  NPLWV = 157464
   max r-space proj   IRMAX =      1   max aug-charges    IRDMAX=   2442
   dimension x,y,z NGX =    54 NGY =   54 NGZ =   54
   dimension x,y,z NGXF=   108 NGYF=  108 NGZF=  108
   support grid    NGXF=   108 NGYF=  108 NGZF=  108
   ions per type =               1   1
 NGX,Y,Z   is equivalent  to a cutoff of  11.22, 11.22, 11.22 a.u.
 NGXF,Y,Z  is equivalent  to a cutoff of  22.44, 22.44, 22.44 a.u.


 I would recommend the setting:
   dimension x,y,z NGX =    52 NGY =   52 NGZ =   52
 SYSTEM =  CO dimer in a box                       
 POSCAR =  CO dimer in a box                       

 Startparameter for this run:
   NWRITE =      2    write-flag & timer
   PREC   = normal    normal or accurate (medium, high low for compatibility)
   ISTART =      0    job   : 0-new  1-cont  2-samecut
   ICHARG =      2    charge: 1-file 2-atom 10-const
   ISPIN  =      1    spin polarized calculation?
   LNONCOLLINEAR =      F non collinear calculations
   LSORBIT =      F    spin-orbit coupling
   INIWAV =      1    electr: 0-lowe 1-rand  2-diag
   LASPH  =      F    aspherical Exc in radial PAW
   METAGGA=      F    non-selfconsistent MetaGGA calc.

 Electronic Relaxation 1
   ENCUT  =  700.0 eV  51.45 Ry    7.17 a.u.  17.26 17.26 17.26*2*pi/ulx,y,z
   ENINI  =  700.0     initial cutoff
   ENAUG  =  946.8 eV  augmentation charge cutoff
   NELM   =     60;   NELMIN=  2; NELMDL= -5     # of ELM steps 
   EDIFF  = 0.1E-03   stopping-criterion for ELM
   LREAL  =      F    real-space projection
   NLSPLINE    = F    spline interpolate recip. space projectors
   LCOMPAT=      F    compatible to vasp.4.4
   GGA_COMPAT  = T    GGA compatible to vasp.4.4-vasp.4.6
   LMAXPAW     = -100 max onsite density
   LMAXMIX     =    2 max onsite mixed and CHGCAR
   VOSKOWN=      0    Vosko Wilk Nusair interpolation
   ROPT   =    0.00000   0.00000
 Ionic relaxation
   EDIFFG = 0.1E-02   stopping-criterion for IOM
   NSW    =      5    number of steps for IOM
   NBLOCK =      1;   KBLOCK =      5    inner block; outer block 
   IBRION =      2    ionic relax: 0-MD 1-quasi-New 2-CG
   NFREE  =      1    steps in history (QN), initial steepest desc. (CG)
   ISIF   =      2    stress and relaxation
   IWAVPR =     11    prediction:  0-non 1-charg 2-wave 3-comb
   ISYM   =      2    0-nonsym 1-usesym 2-fastsym
   LCORR  =      T    Harris-Foulkes like correction to forces

   POTIM  = 0.5000    time-step for ionic-motion
   TEIN   =    0.0    initial temperature
   TEBEG  =    0.0;   TEEND  =   0.0 temperature during run
   SMASS  =  -3.00    Nose mass-parameter (am)
   estimated Nose-frequenzy (Omega)   =  0.10E-29 period in steps =****** mass=  -0.146E-26a.u.
   SCALEE = 1.0000    scale energy and forces
   NPACO  =    256;   APACO  = 16.0  distance and # of slots for P.C.
   PSTRESS=    0.0 pullay stress

  Mass of Ions in am
   POMASS =  12.01 16.00
  Ionic Valenz
   ZVAL   =   4.00  6.00
  Atomic Wigner-Seitz radii
   RWIGS  =  -1.00 -1.00
  virtual crystal weights 
   VCA    =   1.00  1.00
   NELECT =      10.0000    total number of electrons
   NUPDOWN=      -1.0000    fix difference up-down

 DOS related values:
   EMIN   =  10.00;   EMAX   =-10.00  energy-range for DOS
   EFERMI =   0.00
   ISMEAR =     0;   SIGMA  =   0.20  broadening in eV -4-tet -1-fermi 0-gaus

 Electronic relaxation 2 (details)
   IALGO  =     38    algorithm
   LDIAG  =      T    sub-space diagonalisation (order eigenvalues)
   LSUBROT=      F    optimize rotation matrix (better conditioning)
   TURBO    =      0    0=normal 1=particle mesh
   IRESTART =      0    0=no restart 2=restart with 2 vectors
   NREBOOT  =      0    no. of reboots
   NMIN     =      0    reboot dimension
   EREF     =   0.00    reference energy to select bands
   IMIX   =      4    mixing-type and parameters
     AMIX     =   0.40;   BMIX     =  1.00
     AMIX_MAG =   1.60;   BMIX_MAG =  1.00
     AMIN     =   0.10
     WC   =   100.;   INIMIX=   1;  MIXPRE=   1;  MAXMIX= -45

 Intra band minimization:
   WEIMIN = 0.0010     energy-eigenvalue tresh-hold
   EBREAK =  0.25E-05  absolut break condition
   DEPER  =   0.30     relativ break condition  

   TIME   =   0.40     timestep for ELM

  volume/ion in A,a.u.               =     256.00      1727.57
  Fermi-wavevector in a.u.,A,eV,Ry     =   0.440878  0.833138  2.644608  0.194373
  Thomas-Fermi vector in A             =   1.415836
 
 Write flags
   LWAVE  =      T    write WAVECAR
   LCHARG =      T    write CHGCAR
   LVTOT  =      F    write LOCPOT, total local potential
   LVHAR  =      F    write LOCPOT, Hartree potential only
   LELF   =      F    write electronic localiz. function (ELF)
   LORBIT =      0    0 simple, 1 ext, 2 COOP (PROOUT)


 Dipole corrections
   LMONO  =      F    monopole corrections only (constant potential shift)
   LDIPOL =      F    correct potential (dipole corrections)
   IDIPOL =      0    1-x, 2-y, 3-z, 4-all directions 
   EPSILON=  1.0000000 bulk dielectric constant

 Exchange correlation treatment:
   GGA     =    --    GGA type
   LEXCH   =     8    internal setting for exchange type
   VOSKOWN=      0    Vosko Wilk Nusair interpolation
   LHFCALC =     F    Hartree Fock is set to
   LHFONE  =     F    Hartree Fock one center treatment
   AEXX    =    0.0000 exact exchange contribution

 Linear response parameters
   LEPSILON=     F    determine dielectric tensor
   LRPA    =     F    only Hartree local field effects (RPA)
   LNABLA  =     F    use nabla operator in PAW spheres
   LVEL    =     F    velocity operator in full k-point grid
   LINTERFAST=   F  fast interpolation
   KINTER  =     0    interpolate to denser k-point grid
   CSHIFT  =0.1000    complex shift for real part using Kramers Kronig
   OMEGAMAX=  -1.0    maximum frequency
   DEG_THRESHOLD= 0.2000000E-02 threshold for treating states as degnerate
   RTIME   =    0.100 relaxation time in fs

 Orbital magnetization related:
   ORBITALMAG=     F  switch on orbital magnetization
   LCHIMAG   =     F  perturbation theory with respect to B field
   DQ        =  0.001000  dq finite difference perturbation B field



--------------------------------------------------------------------------------------------------------


 conjugate gradient relaxation of ions
   using selective dynamics as specified on POSCAR
   WARNING: If single coordinates had been selected the selection of coordinates
            is made according to the corresponding   d i r e c t   coordinates!
            Don't support selection of single cartesian coordinates -- sorry ...
  !
 charge density and potential will be updated during run
 non-spin polarized calculation
 Variant of blocked Davidson
 Davidson routine will perform the subspace rotation
 perform sub-space diagonalisation
    after iterative eigenvector-optimisation
 modified Broyden-mixing scheme, WC =      100.0
 initial mixing is a Kerker type mixing with AMIX =  0.4000 and BMIX =      1.0000
 Hartree-type preconditioning will be used
 using additional bands            5
 reciprocal scheme for non local part
 use partial core corrections
 calculate Harris-corrections to forces 
   (improved forces if not selfconsistent)
 use gradient corrections 
 use of overlap-Matrix (Vanderbilt PP)
 Gauss-broadening in eV      SIGMA  =   0.20


--------------------------------------------------------------------------------------------------------


  energy-cutoff  :      700.00
  volume of cell :      512.00
      direct lattice vectors                 reciprocal lattice vectors
     8.000000000  0.000000000  0.000000000     0.125000000  0.000000000  0.000000000
     0.000000000  8.000000000  0.000000000     0.000000000  0.125000000  0.000000000
     0.000000000  0.000000000  8.000000000     0.000000000  0.000000000  0.125000000

  length of vectors
     8.000000000  8.000000000  8.000000000     0.125000000  0.125000000  0.125000000


 
 k-points in units of 2pi/SCALE and weight: Gamma-point only                        
   0.00000000  0.00000000  0.00000000       1.000
 
 k-points in reciprocal lattice and weights: Gamma-point only                        
   0.00000000  0.00000000  0.00000000       1.000
 
 position of ions in fractional coordinates (direct lattice) 
   0.00000000  0.00000000  0.00000000
   0.00000000  0.00000000  0.14287500
 
 position of ions in cartesian coordinates  (Angst):
   0.00000000  0.00000000  0.00000000
   0.00000000  0.00000000  1.14300000
 


--------------------------------------------------------------------------------------------------------


 use seriel FFT for wavefunctions x direction half grid
 k-point  1 :   0.0000 0.0000 0.0000  plane waves:   10780

 maximum and minimum number of plane-waves per node :     10780    10780

 maximum number of plane-waves:     10780
 maximum index in each direction: 
   IXMAX=   17   IYMAX=   17   IZMAX=   17
   IXMIN=    0   IYMIN=  -17   IZMIN=  -17

 WARNING: aliasing errors must be expected set NGX to  70 to avoid them
 WARNING: aliasing errors must be expected set NGY to  70 to avoid them
 WARNING: aliasing errors must be expected set NGZ to  70 to avoid them
 aliasing errors are usually negligible using standard VASP settings
 and one can safely disregard these warnings

 serial   3D FFT for wavefunctions
 parallel 3D FFT for charge:
    minimum data exchange during FFTs selected (reduces bandwidth)


 total amount of memory used by VASP on root node    96832. kBytes
========================================================================

   base      :      30000. kBytes
   nonl-proj :       1724. kBytes
   fftplans  :      22159. kBytes
   grid      :      42083. kBytes
   one-center:          3. kBytes
   wavefun   :        863. kBytes
 
     INWAV:  cpu time    0.0000: real time    0.0000
 Broyden mixing: mesh for mixing (old mesh)
   NGX = 35   NGY = 35   NGZ = 35
  (NGX  =108   NGY  =108   NGZ  =108)
  gives a total of  42875 points

 initial charge density was supplied:
 charge density of overlapping atoms calculated
 number of electron      10.0000000 magnetization 
 keeping initial charge density in first step


--------------------------------------------------------------------------------------------------------


 Maximum index for augmentation-charges         1066 (set IRDMAX)


--------------------------------------------------------------------------------------------------------


 First call to EWALD:  gamma=   0.222
 Maximum number of real-space cells 3x 3x 3
 Maximum number of reciprocal cells 3x 3x 3

 FEWALD executed in parallel
    FEWALD:  cpu time    0.0015: real time    0.0015


----------------------------------------- Iteration    1(   1)  ---------------------------------------


    POTLOK:  cpu time    0.3677: real time    0.3710
    SETDIJ:  cpu time    0.0021: real time    0.0021
     EDDAV:  cpu time    0.1070: real time    0.1146
       DOS:  cpu time    0.0003: real time    0.0005
    --------------------------------------------
      LOOP:  cpu time    0.4781: real time    0.4893

 eigenvalue-minimisations  :    20
 total energy-change (2. order) : 0.8985916E+02  (-0.2997241E+03)
 number of electron      10.0000000 magnetization 
 augmentation part       10.0000000 magnetization 

 Free energy of the ion-electron system (eV)
  ---------------------------------------------------
  alpha Z        PSCENC =         0.57153965
  Ewald energy   TEWEN  =        48.90784304
  -Hartree energ DENC   =      -511.30202052
  -exchange      EXHF   =         0.00000000
  -V(xc)+E(xc)   XCENC  =        31.57058753
  PAW double counting   =       461.48086075     -457.43960020
  entropy T*S    EENTRO =        -0.00100877
  eigenvalues    EBANDS =       -63.24982116
  atomic energy  EATOM  =       579.32078282
  Solvation  Ediel_sol  =         0.00000000
  ---------------------------------------------------
  free energy    TOTEN  =        89.85916314 eV

  energy without entropy =       89.86017190  energy(sigma->0) =       89.85966752


--------------------------------------------------------------------------------------------------------




----------------------------------------- Iteration    1(   2)  ---------------------------------------


     EDDAV:  cpu time    0.1517: real time    0.1529
       DOS:  cpu time    0.0001: real time    0.0001
    --------------------------------------------
      LOOP:  cpu time    0.1529: real time    0.1544

 eigenvalue-minimisations  :    36
 total energy-change (2. order) :-0.7266388E+02  (-0.7179608E+02)
 number of electron      10.0000000 magnetization 
 augmentation part       10.0000000 magnetization 

 Free energy of the ion-electron system (eV)
  ---------------------------------------------------
  alpha Z        PSCENC =         0.57153965
  Ewald energy   TEWEN  =        48.90784304
  -Hartree energ DENC   =      -511.30202052
  -exchange      EXHF   =         0.00000000
  -V(xc)+E(xc)   XCENC  =        31.57058753
  PAW double counting   =       461.48086075     -457.43960020
  entropy T*S    EENTRO =        -0.00000000
  eigenvalues    EBANDS =      -135.91470676
  atomic energy  EATOM  =       579.32078282
  Solvation  Ediel_sol  =         0.00000000
  ---------------------------------------------------
  free energy    TOTEN  =        17.19528631 eV

  energy without entropy =       17.19528631  energy(sigma->0) =       17.19528631


--------------------------------------------------------------------------------------------------------




----------------------------------------- Iteration    1(   3)  ---------------------------------------


     EDDAV:  cpu time    0.1333: real time    0.1378
       DOS:  cpu time    0.0001: real time    0.0000
    --------------------------------------------
      LOOP:  cpu time    0.1343: real time    0.1390

 eigenvalue-minimisations  :    32
 total energy-change (2. order) :-0.3045615E+02  (-0.3044288E+02)
 number of electron      10.0000000 magnetization 
 augmentation part       10.0000000 magnetization 

 Free energy of the ion-electron system (eV)
  ---------------------------------------------------
  alpha Z        PSCENC =         0.57153965
  Ewald energy   TEWEN  =        48.90784304
  -Hartree energ DENC   =      -511.30202052
  -exchange      EXHF   =         0.00000000
  -V(xc)+E(xc)   XCENC  =        31.57058753
  PAW double counting   =       461.48086075     -457.43960020
  entropy T*S    EENTRO =        -0.00000000
  eigenvalues    EBANDS =      -166.37086102
  atomic energy  EATOM  =       579.32078282
  Solvation  Ediel_sol  =         0.00000000
  ---------------------------------------------------
  free energy    TOTEN  =       -13.26086795 eV

  energy without entropy =      -13.26086795  energy(sigma->0) =      -13.26086795


--------------------------------------------------------------------------------------------------------




----------------------------------------- Iteration    1(   4)  ---------------------------------------


     EDDAV:  cpu time    0.1339: real time    0.1354
       DOS:  cpu time    0.0001: real time    0.0000
    --------------------------------------------
      LOOP:  cpu time    0.1349: real time    0.1366

 eigenvalue-minimisations  :    32
 total energy-change (2. order) :-0.2472622E+01  (-0.2472495E+01)
 number of electron      10.0000000 magnetization 
 augmentation part       10.0000000 magnetization 

 Free energy of the ion-electron system (eV)
  ---------------------------------------------------
  alpha Z        PSCENC =         0.57153965
  Ewald energy   TEWEN  =        48.90784304
  -Hartree energ DENC   =      -511.30202052
  -exchange      EXHF   =         0.00000000
  -V(xc)+E(xc)   XCENC  =        31.57058753
  PAW double counting   =       461.48086075     -457.43960020
  entropy T*S    EENTRO =        -0.00000000
  eigenvalues    EBANDS =      -168.84348344
  atomic energy  EATOM  =       579.32078282
  Solvation  Ediel_sol  =         0.00000000
  ---------------------------------------------------
  free energy    TOTEN  =       -15.73349038 eV

  energy without entropy =      -15.73349038  energy(sigma->0) =      -15.73349038


--------------------------------------------------------------------------------------------------------




----------------------------------------- Iteration    1(   5)  ---------------------------------------


     EDDAV:  cpu time    0.1278: real time    0.1291
       DOS:  cpu time    0.0000: real time    0.0000
    CHARGE:  cpu time    0.0424: real time    0.0428
    MIXING:  cpu time    0.0103: real time    0.0103
    --------------------------------------------
      LOOP:  cpu time    0.1817: real time    0.1837

 eigenvalue-minimisations  :    30
 total energy-change (2. order) :-0.7595472E-02  (-0.7595200E-02)
 number of electron      10.0000003 magnetization 
 augmentation part        0.0099208 magnetization 

 Broyden mixing:
  rms(total) = 0.29667E+01    rms(broyden)= 0.29667E+01
  rms(prec ) = 0.30186E+01
  weight for this iteration     100.00

 Free energy of the ion-electron system (eV)
  ---------------------------------------------------
  alpha Z        PSCENC =         0.57153965
  Ewald energy   TEWEN  =        48.90784304
  -Hartree energ DENC   =      -511.30202052
  -exchange      EXHF   =         0.00000000
  -V(xc)+E(xc)   XCENC  =        31.57058753
  PAW double counting   =       461.48086075     -457.43960020
  entropy T*S    EENTRO =        -0.00000000
  eigenvalues    EBANDS =      -168.85107891
  atomic energy  EATOM  =       579.32078282
  Solvation  Ediel_sol  =         0.00000000
  ---------------------------------------------------
  free energy    TOTEN  =       -15.74108585 eV

  energy without entropy =      -15.74108585  energy(sigma->0) =      -15.74108585


--------------------------------------------------------------------------------------------------------




----------------------------------------- Iteration    1(   6)  ---------------------------------------


    POTLOK:  cpu time    0.3523: real time    0.3566
    SETDIJ:  cpu time    0.0017: real time    0.0040
     EDDAV:  cpu time    0.1016: real time    0.1034
       DOS:  cpu time    0.0001: real time    0.0001
    CHARGE:  cpu time    0.0385: real time    0.0388
    MIXING:  cpu time    0.0106: real time    0.0117
    --------------------------------------------
      LOOP:  cpu time    0.5063: real time    0.5162

 eigenvalue-minimisations  :    20
 total energy-change (2. order) : 0.6441186E+00  (-0.3276214E+00)
 number of electron      10.0000002 magnetization 
 augmentation part       -0.0153139 magnetization 

 Broyden mixing:
  rms(total) = 0.19998E+01    rms(broyden)= 0.19997E+01
  rms(prec ) = 0.20170E+01
  weight for this iteration     100.00

 eigenvalues of (default mixing * dielectric matrix)
  average eigenvalue GAMMA=   2.4011
  2.4011

 Free energy of the ion-electron system (eV)
  ---------------------------------------------------
  alpha Z        PSCENC =         0.57153965
  Ewald energy   TEWEN  =        48.90784304
  -Hartree energ DENC   =      -525.27590665
  -exchange      EXHF   =         0.00000000
  -V(xc)+E(xc)   XCENC  =        32.36519363
  PAW double counting   =      2230.92160332    -2227.07660109
  entropy T*S    EENTRO =        -0.00000000
  eigenvalues    EBANDS =      -154.83142196
  atomic energy  EATOM  =       579.32078282
  Solvation  Ediel_sol  =         0.00000000
  ---------------------------------------------------
  free energy    TOTEN  =       -15.09696723 eV

  energy without entropy =      -15.09696723  energy(sigma->0) =      -15.09696723


--------------------------------------------------------------------------------------------------------




----------------------------------------- Iteration    1(   7)  ---------------------------------------


    POTLOK:  cpu time    0.3452: real time    0.3506
    SETDIJ:  cpu time    0.0016: real time    0.0016
     EDDAV:  cpu time    0.1308: real time    0.1325
       DOS:  cpu time    0.0001: real time    0.0001
    CHARGE:  cpu time    0.0376: real time    0.0379
    MIXING:  cpu time    0.0109: real time    0.0112
    --------------------------------------------
      LOOP:  cpu time    0.5276: real time    0.5356

 eigenvalue-minimisations  :    30
 total energy-change (2. order) : 0.5472547E-01  (-0.2670570E+00)
 number of electron      10.0000002 magnetization 
 augmentation part        0.0026172 magnetization 

 Broyden mixing:
  rms(total) = 0.26843E+00    rms(broyden)= 0.26836E+00
  rms(prec ) = 0.37627E+00
  weight for this iteration     100.00

 eigenvalues of (default mixing * dielectric matrix)
  average eigenvalue GAMMA=   1.5554
  0.8124  2.2983

 Free energy of the ion-electron system (eV)
  ---------------------------------------------------
  alpha Z        PSCENC =         0.57153965
  Ewald energy   TEWEN  =        48.90784304
  -Hartree energ DENC   =      -529.73356504
  -exchange      EXHF   =         0.00000000
  -V(xc)+E(xc)   XCENC  =        32.67563809
  PAW double counting   =      7384.03333053    -7380.19785892
  entropy T*S    EENTRO =        -0.00000000
  eigenvalues    EBANDS =      -150.61995193
  atomic energy  EATOM  =       579.32078282
  Solvation  Ediel_sol  =         0.00000000
  ---------------------------------------------------
  free energy    TOTEN  =       -15.04224176 eV

  energy without entropy =      -15.04224176  energy(sigma->0) =      -15.04224176


--------------------------------------------------------------------------------------------------------




----------------------------------------- Iteration    1(   8)  ---------------------------------------


    POTLOK:  cpu time    0.3740: real time    0.3795
    SETDIJ:  cpu time    0.0017: real time    0.0017
     EDDAV:  cpu time    0.1108: real time    0.1121
       DOS:  cpu time    0.0001: real time    0.0001
    CHARGE:  cpu time    0.0392: real time    0.0396
    MIXING:  cpu time    0.0132: real time    0.0132
    --------------------------------------------
      LOOP:  cpu time    0.5403: real time    0.5478

 eigenvalue-minimisations  :    24
 total energy-change (2. order) : 0.1217678E+00  (-0.8364508E-01)
 number of electron      10.0000002 magnetization 
 augmentation part       -0.0104503 magnetization 

 Broyden mixing:
  rms(total) = 0.23017E+00    rms(broyden)= 0.23012E+00
  rms(prec ) = 0.23358E+00
  weight for this iteration     100.00

 eigenvalues of (default mixing * dielectric matrix)
  average eigenvalue GAMMA=   1.3833
  2.6131  0.8086  0.7280

 Free energy of the ion-electron system (eV)
  ---------------------------------------------------
  alpha Z        PSCENC =         0.57153965
  Ewald energy   TEWEN  =        48.90784304
  -Hartree energ DENC   =      -532.56541787
  -exchange      EXHF   =         0.00000000
  -V(xc)+E(xc)   XCENC  =        32.83113921
  PAW double counting   =      7986.54360537    -7982.74373611
  entropy T*S    EENTRO =        -0.00000000
  eigenvalues    EBANDS =      -147.78623009
  atomic energy  EATOM  =       579.32078282
  Solvation  Ediel_sol  =         0.00000000
  ---------------------------------------------------
  free energy    TOTEN  =       -14.92047397 eV

  energy without entropy =      -14.92047397  energy(sigma->0) =      -14.92047397


--------------------------------------------------------------------------------------------------------




----------------------------------------- Iteration    1(   9)  ---------------------------------------


    POTLOK:  cpu time    0.3387: real time    0.3436
    SETDIJ:  cpu time    0.0028: real time    0.0028
     EDDAV:  cpu time    0.1232: real time    0.1245
       DOS:  cpu time    0.0001: real time    0.0001
    CHARGE:  cpu time    0.0372: real time    0.0375
    MIXING:  cpu time    0.0122: real time    0.0122
    --------------------------------------------
      LOOP:  cpu time    0.5157: real time    0.5225

 eigenvalue-minimisations  :    28
 total energy-change (2. order) :-0.2455329E-02  (-0.3169059E-02)
 number of electron      10.0000002 magnetization 
 augmentation part       -0.0109100 magnetization 

 Broyden mixing:
  rms(total) = 0.36499E-01    rms(broyden)= 0.36473E-01
  rms(prec ) = 0.46398E-01
  weight for this iteration     100.00

 eigenvalues of (default mixing * dielectric matrix)
  average eigenvalue GAMMA=   1.3286
  2.4518  1.1817  0.8405  0.8405

 Free energy of the ion-electron system (eV)
  ---------------------------------------------------
  alpha Z        PSCENC =         0.57153965
  Ewald energy   TEWEN  =        48.90784304
  -Hartree energ DENC   =      -532.57967873
  -exchange      EXHF   =         0.00000000
  -V(xc)+E(xc)   XCENC  =        32.83599558
  PAW double counting   =      8756.30258479    -8752.49202957
  entropy T*S    EENTRO =        -0.00000000
  eigenvalues    EBANDS =      -147.78996689
  atomic energy  EATOM  =       579.32078282
  Solvation  Ediel_sol  =         0.00000000
  ---------------------------------------------------
  free energy    TOTEN  =       -14.92292930 eV

  energy without entropy =      -14.92292930  energy(sigma->0) =      -14.92292930


--------------------------------------------------------------------------------------------------------




----------------------------------------- Iteration    1(  10)  ---------------------------------------


    POTLOK:  cpu time    0.3356: real time    0.3413
    SETDIJ:  cpu time    0.0015: real time    0.0015
     EDDAV:  cpu time    0.1076: real time    0.1087
       DOS:  cpu time    0.0001: real time    0.0001
    CHARGE:  cpu time    0.0375: real time    0.0378
    MIXING:  cpu time    0.0143: real time    0.0143
    --------------------------------------------
      LOOP:  cpu time    0.4980: real time    0.5053

 eigenvalue-minimisations  :    24
 total energy-change (2. order) : 0.2807480E-03  (-0.7759786E-03)
 number of electron      10.0000002 magnetization 
 augmentation part       -0.0099808 magnetization 

 Broyden mixing:
  rms(total) = 0.43438E-01    rms(broyden)= 0.43436E-01
  rms(prec ) = 0.45173E-01
  weight for this iteration     100.00

 eigenvalues of (default mixing * dielectric matrix)
  average eigenvalue GAMMA=   1.5295
  2.2767  2.2767  1.6115  0.7414  0.7414

 Free energy of the ion-electron system (eV)
  ---------------------------------------------------
  alpha Z        PSCENC =         0.57153965
  Ewald energy   TEWEN  =        48.90784304
  -Hartree energ DENC   =      -531.75437302
  -exchange      EXHF   =         0.00000000
  -V(xc)+E(xc)   XCENC  =        32.78355789
  PAW double counting   =      8506.44220893    -8502.61806989
  entropy T*S    EENTRO =        -0.00000000
  eigenvalues    EBANDS =      -148.57613797
  atomic energy  EATOM  =       579.32078282
  Solvation  Ediel_sol  =         0.00000000
  ---------------------------------------------------
  free energy    TOTEN  =       -14.92264855 eV

  energy without entropy =      -14.92264855  energy(sigma->0) =      -14.92264855


--------------------------------------------------------------------------------------------------------




----------------------------------------- Iteration    1(  11)  ---------------------------------------


    POTLOK:  cpu time    0.3360: real time    0.3399
    SETDIJ:  cpu time    0.0016: real time    0.0016
     EDDAV:  cpu time    0.1031: real time    0.1041
       DOS:  cpu time    0.0001: real time    0.0001
    CHARGE:  cpu time    0.0384: real time    0.0387
    MIXING:  cpu time    0.0136: real time    0.0136
    --------------------------------------------
      LOOP:  cpu time    0.4941: real time    0.4996

 eigenvalue-minimisations  :    22
 total energy-change (2. order) :-0.1578813E-02  (-0.5877038E-04)
 number of electron      10.0000002 magnetization 
 augmentation part       -0.0099212 magnetization 

 Broyden mixing:
  rms(total) = 0.85323E-02    rms(broyden)= 0.85317E-02
  rms(prec ) = 0.11350E-01
  weight for this iteration     100.00

 eigenvalues of (default mixing * dielectric matrix)
  average eigenvalue GAMMA=   1.4141
  2.2684  2.2684  1.5551  0.7718  0.7718  0.8489

 Free energy of the ion-electron system (eV)
  ---------------------------------------------------
  alpha Z        PSCENC =         0.57153965
  Ewald energy   TEWEN  =        48.90784304
  -Hartree energ DENC   =      -531.87262623
  -exchange      EXHF   =         0.00000000
  -V(xc)+E(xc)   XCENC  =        32.78478587
  PAW double counting   =      8542.02303581    -8538.19716219
  entropy T*S    EENTRO =        -0.00000000
  eigenvalues    EBANDS =      -148.46242613
  atomic energy  EATOM  =       579.32078282
  Solvation  Ediel_sol  =         0.00000000
  ---------------------------------------------------
  free energy    TOTEN  =       -14.92422737 eV

  energy without entropy =      -14.92422737  energy(sigma->0) =      -14.92422737


--------------------------------------------------------------------------------------------------------




----------------------------------------- Iteration    1(  12)  ---------------------------------------


    POTLOK:  cpu time    0.3333: real time    0.3830
    SETDIJ:  cpu time    0.0015: real time    0.0015
     EDDAV:  cpu time    0.1090: real time    0.1091
       DOS:  cpu time    0.0001: real time    0.0001
    CHARGE:  cpu time    0.0380: real time    0.0393
    MIXING:  cpu time    0.0158: real time    0.0159
    --------------------------------------------
      LOOP:  cpu time    0.4990: real time    0.5505

 eigenvalue-minimisations  :    24
 total energy-change (2. order) :-0.5063805E-03  (-0.1975250E-04)
 number of electron      10.0000002 magnetization 
 augmentation part       -0.0101038 magnetization 

 Broyden mixing:
  rms(total) = 0.56260E-02    rms(broyden)= 0.56250E-02
  rms(prec ) = 0.77859E-02
  weight for this iteration     100.00

 eigenvalues of (default mixing * dielectric matrix)
  average eigenvalue GAMMA=   1.4990
  2.5338  2.3662  1.5375  1.5375  0.7553  0.7553  1.0078

 Free energy of the ion-electron system (eV)
  ---------------------------------------------------
  alpha Z        PSCENC =         0.57153965
  Ewald energy   TEWEN  =        48.90784304
  -Hartree energ DENC   =      -531.93258168
  -exchange      EXHF   =         0.00000000
  -V(xc)+E(xc)   XCENC  =        32.78697923
  PAW double counting   =      8522.48791463    -8518.66241425
  entropy T*S    EENTRO =        -0.00000000
  eigenvalues    EBANDS =      -148.40479718
  atomic energy  EATOM  =       579.32078282
  Solvation  Ediel_sol  =         0.00000000
  ---------------------------------------------------
  free energy    TOTEN  =       -14.92473375 eV

  energy without entropy =      -14.92473375  energy(sigma->0) =      -14.92473375


--------------------------------------------------------------------------------------------------------




----------------------------------------- Iteration    1(  13)  ---------------------------------------


    POTLOK:  cpu time    0.3352: real time    0.3357
    SETDIJ:  cpu time    0.0015: real time    0.0015
     EDDAV:  cpu time    0.0964: real time    0.0965
       DOS:  cpu time    0.0011: real time    0.0011
    CHARGE:  cpu time    0.0379: real time    0.0379
    MIXING:  cpu time    0.0167: real time    0.0167
    --------------------------------------------
      LOOP:  cpu time    0.4902: real time    0.4910

 eigenvalue-minimisations  :    20
 total energy-change (2. order) :-0.1356375E-02  (-0.1884273E-04)
 number of electron      10.0000002 magnetization 
 augmentation part       -0.0101743 magnetization 

 Broyden mixing:
  rms(total) = 0.48991E-02    rms(broyden)= 0.48987E-02
  rms(prec ) = 0.54706E-02
  weight for this iteration     100.00

 eigenvalues of (default mixing * dielectric matrix)
  average eigenvalue GAMMA=   1.5960
  3.3694  2.3760  1.7905  1.5903  1.2467  0.7566  0.7566  0.8823

 Free energy of the ion-electron system (eV)
  ---------------------------------------------------
  alpha Z        PSCENC =         0.57153965
  Ewald energy   TEWEN  =        48.90784304
  -Hartree energ DENC   =      -532.08518607
  -exchange      EXHF   =         0.00000000
  -V(xc)+E(xc)   XCENC  =        32.79227538
  PAW double counting   =      8563.32851280    -8559.50242032
  entropy T*S    EENTRO =        -0.00000000
  eigenvalues    EBANDS =      -148.25943742
  atomic energy  EATOM  =       579.32078282
  Solvation  Ediel_sol  =         0.00000000
  ---------------------------------------------------
  free energy    TOTEN  =       -14.92609012 eV

  energy without entropy =      -14.92609012  energy(sigma->0) =      -14.92609012


--------------------------------------------------------------------------------------------------------




----------------------------------------- Iteration    1(  14)  ---------------------------------------


    POTLOK:  cpu time    0.3312: real time    0.3344
    SETDIJ:  cpu time    0.0015: real time    0.0015
     EDDAV:  cpu time    0.1100: real time    0.1101
       DOS:  cpu time    0.0001: real time    0.0001
    CHARGE:  cpu time    0.0377: real time    0.0378
    MIXING:  cpu time    0.0174: real time    0.0174
    --------------------------------------------
      LOOP:  cpu time    0.4993: real time    0.5028

 eigenvalue-minimisations  :    24
 total energy-change (2. order) :-0.5205924E-03  (-0.5962687E-05)
 number of electron      10.0000002 magnetization 
 augmentation part       -0.0101436 magnetization 

 Broyden mixing:
  rms(total) = 0.30548E-02    rms(broyden)= 0.30548E-02
  rms(prec ) = 0.32573E-02
  weight for this iteration     100.00

 eigenvalues of (default mixing * dielectric matrix)
  average eigenvalue GAMMA=   1.7499
  3.2243  2.6312  2.6312  2.2486  1.5149  0.7558  0.7558  1.0862  0.9010

 Free energy of the ion-electron system (eV)
  ---------------------------------------------------
  alpha Z        PSCENC =         0.57153965
  Ewald energy   TEWEN  =        48.90784304
  -Hartree energ DENC   =      -532.12182624
  -exchange      EXHF   =         0.00000000
  -V(xc)+E(xc)   XCENC  =        32.79274692
  PAW double counting   =      8549.57999845    -8545.75388302
  entropy T*S    EENTRO =        -0.00000000
  eigenvalues    EBANDS =      -148.22381233
  atomic energy  EATOM  =       579.32078282
  Solvation  Ediel_sol  =         0.00000000
  ---------------------------------------------------
  free energy    TOTEN  =       -14.92661072 eV

  energy without entropy =      -14.92661072  energy(sigma->0) =      -14.92661072


--------------------------------------------------------------------------------------------------------




----------------------------------------- Iteration    1(  15)  ---------------------------------------


    POTLOK:  cpu time    0.3336: real time    0.3356
    SETDIJ:  cpu time    0.0015: real time    0.0015
     EDDAV:  cpu time    0.1104: real time    0.1106
       DOS:  cpu time    0.0001: real time    0.0001
    CHARGE:  cpu time    0.0377: real time    0.0377
    MIXING:  cpu time    0.0181: real time    0.0182
    --------------------------------------------
      LOOP:  cpu time    0.5028: real time    0.5053

 eigenvalue-minimisations  :    24
 total energy-change (2. order) :-0.3505239E-03  (-0.4443283E-05)
 number of electron      10.0000002 magnetization 
 augmentation part       -0.0101263 magnetization 

 Broyden mixing:
  rms(total) = 0.94685E-03    rms(broyden)= 0.94678E-03
  rms(prec ) = 0.10039E-02
  weight for this iteration     100.00

 eigenvalues of (default mixing * dielectric matrix)
  average eigenvalue GAMMA=   1.7872
  5.1575  2.3879  2.3879  2.1239  1.5298  1.0115  1.0115  0.7569  0.7569  0.7478

 Free energy of the ion-electron system (eV)
  ---------------------------------------------------
  alpha Z        PSCENC =         0.57153965
  Ewald energy   TEWEN  =        48.90784304
  -Hartree energ DENC   =      -532.12467064
  -exchange      EXHF   =         0.00000000
  -V(xc)+E(xc)   XCENC  =        32.79209485
  PAW double counting   =      8545.91216155    -8542.08613376
  entropy T*S    EENTRO =        -0.00000000
  eigenvalues    EBANDS =      -148.22057876
  atomic energy  EATOM  =       579.32078282
  Solvation  Ediel_sol  =         0.00000000
  ---------------------------------------------------
  free energy    TOTEN  =       -14.92696124 eV

  energy without entropy =      -14.92696124  energy(sigma->0) =      -14.92696124


--------------------------------------------------------------------------------------------------------




----------------------------------------- Iteration    1(  16)  ---------------------------------------


    POTLOK:  cpu time    0.3356: real time    0.3401
    SETDIJ:  cpu time    0.0016: real time    0.0016
     EDDAV:  cpu time    0.1044: real time    0.1045
       DOS:  cpu time    0.0001: real time    0.0001
    --------------------------------------------
      LOOP:  cpu time    0.4428: real time    0.4477

 eigenvalue-minimisations  :    22
 total energy-change (2. order) :-0.2322396E-04  (-0.8504794E-07)
 number of electron      10.0000002 magnetization 
 augmentation part       -0.0101263 magnetization 

 Free energy of the ion-electron system (eV)
  ---------------------------------------------------
  alpha Z        PSCENC =         0.57153965
  Ewald energy   TEWEN  =        48.90784304
  -Hartree energ DENC   =      -532.12360226
  -exchange      EXHF   =         0.00000000
  -V(xc)+E(xc)   XCENC  =        32.79198265
  PAW double counting   =      8544.84051304    -8541.01446221
  entropy T*S    EENTRO =        -0.00000000
  eigenvalues    EBANDS =      -148.22158120
  atomic energy  EATOM  =       579.32078282
  Solvation  Ediel_sol  =         0.00000000
  ---------------------------------------------------
  free energy    TOTEN  =       -14.92698446 eV

  energy without entropy =      -14.92698446  energy(sigma->0) =      -14.92698446


--------------------------------------------------------------------------------------------------------




 average (electrostatic) potential at core
  the test charge radii are     0.5770  0.5955
  (the norm of the test charge is              1.0000)
       1 -88.8553       2-122.2881
 
 
 
 E-fermi :  -7.7805     XC(G=0):  -1.1821     alpha+bet : -0.3665


 k-point     1 :       0.0000    0.0000    0.0000
  band No.  band energies     occupation 
      1     -28.8283      2.00000
      2     -13.7841      2.00000
      3     -11.3825      2.00000
      4     -11.3825      2.00000
      5      -8.7335      2.00000
      6      -1.7835      0.00000
      7      -1.7835      0.00000
      8      -0.2230      0.00000
      9       1.7514      0.00000
     10       1.9158      0.00000


--------------------------------------------------------------------------------------------------------


 soft charge-density along one line, spin component           1
         0         1         2         3         4         5         6         7         8         9
 total charge-density along one line
 
 pseudopotential strength for first ion, spin component:           1
 12.823  21.581  -0.000   0.049   0.000  -0.000   0.087   0.000
 21.581  36.321  -0.000   0.082   0.000  -0.000   0.146   0.000
 -0.000  -0.000  -3.223   0.000   0.000  -5.780   0.000   0.000
  0.049   0.082   0.000  -3.218   0.000   0.000  -5.773   0.000
  0.000   0.000   0.000   0.000  -3.223   0.000   0.000  -5.780
 -0.000  -0.000  -5.780   0.000   0.000 -10.344   0.000   0.000
  0.087   0.146   0.000  -5.773   0.000   0.000 -10.332   0.000
  0.000   0.000   0.000   0.000  -5.780   0.000   0.000 -10.344
 total augmentation occupancy for first ion, spin component:           1
  6.933  -2.445   0.000   6.427  -0.000   0.000  -2.942  -0.000
 -2.445   1.107   0.000  -3.321   0.000   0.000   1.401   0.000
  0.000  -0.000   3.175   0.000   0.000  -1.020   0.000   0.000
  6.427  -3.321   0.000  12.367  -0.000   0.000  -4.752   0.000
  0.000  -0.000   0.000   0.000   3.175   0.000   0.000  -1.020
  0.000   0.000  -1.020   0.000   0.000   0.327   0.000   0.000
 -2.942   1.401   0.000  -4.752   0.000   0.000   1.901  -0.000
 -0.000   0.000   0.000   0.000  -1.020   0.000  -0.000   0.327


------------------------ aborting loop because EDIFF is reached ----------------------------------------


    CHARGE:  cpu time    0.0376: real time    0.0389
    FORLOC:  cpu time    0.0176: real time    0.0176
    FORNL :  cpu time    0.0073: real time    0.0073
    STRESS:  cpu time    0.0656: real time    0.0677
    FORCOR:  cpu time    0.3624: real time    0.3642
    FORHAR:  cpu time    0.0867: real time    0.0868
    MIXING:  cpu time    0.0177: real time    0.0177
    OFIELD:  cpu time    0.0001: real time    0.0001

  FORCE on cell =-STRESS in cart. coord.  units (eV):
  Direction    XX          YY          ZZ          XY          YZ          ZX
  --------------------------------------------------------------------------------------
  Alpha Z     0.57154     0.57154     0.57154
  Ewald     -86.00472   -86.00472   220.91723    -0.00000     0.00000     0.00000
  Hartree   140.37447   140.37447   251.36309    -0.00000    -0.00000    -0.00000
  E(xc)     -45.83275   -45.83275   -45.04842    -0.00000    -0.00000    -0.00000
  Local    -254.63194  -254.63194  -653.89158    -0.00000     0.00000    -0.00000
  n-local    -2.46943    -2.46942    -7.21063     0.00000     0.00000     0.00000
  augment     0.45310     0.45310     0.66640     0.00000     0.00000     0.00000
  Kinetic   246.10497   246.10493   230.08467    -0.00000    -0.00000    -0.00000
  Fock        0.00000     0.00000     0.00000     0.00000     0.00000     0.00000
  -------------------------------------------------------------------------------------
  Total      -1.43477    -1.43477    -2.54769     0.00000     0.00000     0.00000
  in kB      -4.48976    -4.48976    -7.97237     0.00000     0.00000     0.00000
  external pressure =       -5.65 kB  Pullay stress =        0.00 kB


 VOLUME and BASIS-vectors are now :
 -----------------------------------------------------------------------------
  energy-cutoff  :      700.00
  volume of cell :      512.00
      direct lattice vectors                 reciprocal lattice vectors
     8.000000000  0.000000000  0.000000000     0.125000000  0.000000000  0.000000000
     0.000000000  8.000000000  0.000000000     0.000000000  0.125000000  0.000000000
     0.000000000  0.000000000  8.000000000     0.000000000  0.000000000  0.125000000

  length of vectors
     8.000000000  8.000000000  8.000000000     0.125000000  0.125000000  0.125000000


 FORCES acting on ions
    electron-ion (+dipol)            ewald-force                    non-local-force                 convergence-correction
 -----------------------------------------------------------------------------------------------
   0.493E-14 0.121E-13 0.235E+03   -.112E-15 -.589E-16 -.261E+03   0.529E-22 -.529E-22 0.270E+02   0.110E-13 0.223E-13 0.196E-03
   -.258E-14 0.447E-15 -.211E+03   0.149E-15 0.115E-15 0.261E+03   -.265E-22 0.265E-22 -.513E+02   -.928E-14 0.157E-13 -.405E-02
 -----------------------------------------------------------------------------------------------
   0.235E-14 0.126E-13 0.243E+02   0.369E-16 0.557E-16 0.000E+00   0.265E-22 -.265E-22 -.243E+02   0.174E-14 0.380E-13 -.386E-02
 
 
 POSITION                                       TOTAL-FORCE (eV/Angst)
 -----------------------------------------------------------------------------------
      0.00000      0.00000      0.00000         0.000000      0.000000      0.868399
      0.00000      0.00000      1.14300         0.000000      0.000000     -0.868399
 -----------------------------------------------------------------------------------
    total drift:                                0.000000      0.000000     -0.002585


--------------------------------------------------------------------------------------------------------



  FREE ENERGIE OF THE ION-ELECTRON SYSTEM (eV)
  ---------------------------------------------------
  free  energy   TOTEN  =       -14.92698446 eV

  energy  without entropy=      -14.92698446  energy(sigma->0) =      -14.92698446
 


--------------------------------------------------------------------------------------------------------


    POTLOK:  cpu time    0.3499: real time    0.3862


--------------------------------------------------------------------------------------------------------


 stress matrix after NEB project (eV)
     -1.43477      0.00000      0.00000
      0.00000     -1.43477      0.00000
      0.00000      0.00000     -2.54769
  FORCES: max atom, RMS     0.868399    0.868399
  FORCE total and by dimension    1.228101    0.868399
  Stress total and by dimension    3.256972    2.547692


--------------------------------------------------------------------------------------------------------


    WAVPRE:  cpu time    0.0842: real time    0.0847
 FEWALD executed in parallel
    FEWALD:  cpu time    0.0002: real time    0.0002
    ORTHCH:  cpu time    0.0029: real time    0.0029
     LOOP+:  cpu time   10.2614: real time   10.4545


----------------------------------------- Iteration    2(   1)  ---------------------------------------


    POTLOK:  cpu time    0.3292: real time    0.3336
    SETDIJ:  cpu time    0.0016: real time    0.0016
     EDDAV:  cpu time    0.1020: real time    0.1043
       DOS:  cpu time    0.0001: real time    0.0001
    CHARGE:  cpu time    0.0391: real time    0.0393
    MIXING:  cpu time    0.0109: real time    0.0109
    --------------------------------------------
      LOOP:  cpu time    0.4837: real time    0.4908

 eigenvalue-minimisations  :    20
 total energy-change (2. order) : 0.3672086E+00  (-0.3860690E+01)
 number of electron      10.0000003 magnetization 
 augmentation part       -0.0040561 magnetization 

 Broyden mixing:
  rms(total) = 0.14894E+01    rms(broyden)= 0.14893E+01
  rms(prec ) = 0.14950E+01
  weight for this iteration     100.00

 Free energy of the ion-electron system (eV)
  ---------------------------------------------------
  alpha Z        PSCENC =         0.57153965
  Ewald energy   TEWEN  =        72.54986167
  -Hartree energ DENC   =      -545.29551589
  -exchange      EXHF   =         0.00000000
  -V(xc)+E(xc)   XCENC  =        33.19149762
  PAW double counting   =      8541.88752995    -8538.06146505
  entropy T*S    EENTRO =        -0.00000000
  eigenvalues    EBANDS =      -158.72398341
  atomic energy  EATOM  =       579.32078282
  Solvation  Ediel_sol  =         0.00000000
  ---------------------------------------------------
  free energy    TOTEN  =       -14.55975264 eV

  energy without entropy =      -14.55975264  energy(sigma->0) =      -14.55975264


--------------------------------------------------------------------------------------------------------




----------------------------------------- Iteration    2(   2)  ---------------------------------------


    POTLOK:  cpu time    0.3315: real time    0.3317
    SETDIJ:  cpu time    0.0016: real time    0.0016
     EDDAV:  cpu time    0.0964: real time    0.0965
       DOS:  cpu time    0.0000: real time    0.0000
    CHARGE:  cpu time    0.0378: real time    0.0378
    MIXING:  cpu time    0.0101: real time    0.0101
    --------------------------------------------
      LOOP:  cpu time    0.4788: real time    0.4795

 eigenvalue-minimisations  :    20
 total energy-change (2. order) : 0.4153129E-02  (-0.5191859E-01)
 number of electron      10.0000003 magnetization 
 augmentation part        0.0032205 magnetization 

 Broyden mixing:
  rms(total) = 0.25195E+00    rms(broyden)= 0.25193E+00
  rms(prec ) = 0.26711E+00
  weight for this iteration     100.00

 eigenvalues of (default mixing * dielectric matrix)
  average eigenvalue GAMMA=   0.9051
  0.9051

 Free energy of the ion-electron system (eV)
  ---------------------------------------------------
  alpha Z        PSCENC =         0.57153965
  Ewald energy   TEWEN  =        72.54986167
  -Hartree energ DENC   =      -547.43257225
  -exchange      EXHF   =         0.00000000
  -V(xc)+E(xc)   XCENC  =        33.30101194
  PAW double counting   =     10640.37105702   -10636.60100327
  entropy T*S    EENTRO =        -0.00000000
  eigenvalues    EBANDS =      -156.63627710
  atomic energy  EATOM  =       579.32078282
  Solvation  Ediel_sol  =         0.00000000
  ---------------------------------------------------
  free energy    TOTEN  =       -14.55559951 eV

  energy without entropy =      -14.55559951  energy(sigma->0) =      -14.55559951


--------------------------------------------------------------------------------------------------------




----------------------------------------- Iteration    2(   3)  ---------------------------------------


    POTLOK:  cpu time    0.3329: real time    0.3365
    SETDIJ:  cpu time    0.0016: real time    0.0016
     EDDAV:  cpu time    0.1622: real time    0.1651
       DOS:  cpu time    0.0001: real time    0.0001
    CHARGE:  cpu time    0.0374: real time    0.0374
    MIXING:  cpu time    0.0094: real time    0.0094
    --------------------------------------------
      LOOP:  cpu time    0.5450: real time    0.5517

 eigenvalue-minimisations  :    40
 total energy-change (2. order) : 0.2048411E-01  (-0.4125408E-02)
 number of electron      10.0000003 magnetization 
 augmentation part        0.0013438 magnetization 

 Broyden mixing:
  rms(total) = 0.18162E+00    rms(broyden)= 0.18162E+00
  rms(prec ) = 0.18654E+00
  weight for this iteration     100.00

 eigenvalues of (default mixing * dielectric matrix)
  average eigenvalue GAMMA=   1.4186
  1.0173  1.8198

 Free energy of the ion-electron system (eV)
  ---------------------------------------------------
  alpha Z        PSCENC =         0.57153965
  Ewald energy   TEWEN  =        72.54986167
  -Hartree energ DENC   =      -549.47319299
  -exchange      EXHF   =         0.00000000
  -V(xc)+E(xc)   XCENC  =        33.40466576
  PAW double counting   =     10815.57107815   -10811.84787112
  entropy T*S    EENTRO =        -0.00000000
  eigenvalues    EBANDS =      -154.63197934
  atomic energy  EATOM  =       579.32078282
  Solvation  Ediel_sol  =         0.00000000
  ---------------------------------------------------
  free energy    TOTEN  =       -14.53511540 eV

  energy without entropy =      -14.53511540  energy(sigma->0) =      -14.53511540


--------------------------------------------------------------------------------------------------------




----------------------------------------- Iteration    2(   4)  ---------------------------------------


    POTLOK:  cpu time    0.3334: real time    0.3358
    SETDIJ:  cpu time    0.0015: real time    0.0015
     EDDAV:  cpu time    0.1104: real time    0.1117
       DOS:  cpu time    0.0000: real time    0.0000
    CHARGE:  cpu time    0.0376: real time    0.0376
    MIXING:  cpu time    0.0098: real time    0.0123
    --------------------------------------------
      LOOP:  cpu time    0.4942: real time    0.5007

 eigenvalue-minimisations  :    24
 total energy-change (2. order) : 0.4767901E-02  (-0.2423524E-02)
 number of electron      10.0000003 magnetization 
 augmentation part        0.0008859 magnetization 

 Broyden mixing:
  rms(total) = 0.71167E-01    rms(broyden)= 0.71165E-01
  rms(prec ) = 0.71717E-01
  weight for this iteration     100.00

 eigenvalues of (default mixing * dielectric matrix)
  average eigenvalue GAMMA=   1.5113
  2.1627  0.9678  1.4035

 Free energy of the ion-electron system (eV)
  ---------------------------------------------------
  alpha Z        PSCENC =         0.57153965
  Ewald energy   TEWEN  =        72.54986167
  -Hartree energ DENC   =      -550.96172323
  -exchange      EXHF   =         0.00000000
  -V(xc)+E(xc)   XCENC  =        33.47955226
  PAW double counting   =     11220.14073676   -11216.45527631
  entropy T*S    EENTRO =        -0.00000000
  eigenvalues    EBANDS =      -153.17582112
  atomic energy  EATOM  =       579.32078282
  Solvation  Ediel_sol  =         0.00000000
  ---------------------------------------------------
  free energy    TOTEN  =       -14.53034750 eV

  energy without entropy =      -14.53034750  energy(sigma->0) =      -14.53034750


--------------------------------------------------------------------------------------------------------




----------------------------------------- Iteration    2(   5)  ---------------------------------------


    POTLOK:  cpu time    0.3238: real time    0.3278
    SETDIJ:  cpu time    0.0015: real time    0.0015
     EDDAV:  cpu time    0.1097: real time    0.1102
       DOS:  cpu time    0.0001: real time    0.0001
    CHARGE:  cpu time    0.0379: real time    0.0379
    MIXING:  cpu time    0.0105: real time    0.0105
    --------------------------------------------
      LOOP:  cpu time    0.4849: real time    0.4896

 eigenvalue-minimisations  :    24
 total energy-change (2. order) :-0.3384774E-03  (-0.1087159E-03)
 number of electron      10.0000003 magnetization 
 augmentation part        0.0006667 magnetization 

 Broyden mixing:
  rms(total) = 0.26817E-01    rms(broyden)= 0.26817E-01
  rms(prec ) = 0.27205E-01
  weight for this iteration     100.00

 eigenvalues of (default mixing * dielectric matrix)
  average eigenvalue GAMMA=   1.4286
  2.1573  1.7736  1.0342  0.7492

 Free energy of the ion-electron system (eV)
  ---------------------------------------------------
  alpha Z        PSCENC =         0.57153965
  Ewald energy   TEWEN  =        72.54986167
  -Hartree energ DENC   =      -550.91999720
  -exchange      EXHF   =         0.00000000
  -V(xc)+E(xc)   XCENC  =        33.47734581
  PAW double counting   =     11396.38731815   -11392.70526903
  entropy T*S    EENTRO =        -0.00000000
  eigenvalues    EBANDS =      -153.21226785
  atomic energy  EATOM  =       579.32078282
  Solvation  Ediel_sol  =         0.00000000
  ---------------------------------------------------
  free energy    TOTEN  =       -14.53068598 eV

  energy without entropy =      -14.53068598  energy(sigma->0) =      -14.53068598


--------------------------------------------------------------------------------------------------------




----------------------------------------- Iteration    2(   6)  ---------------------------------------


    POTLOK:  cpu time    0.3224: real time    0.3228
    SETDIJ:  cpu time    0.0018: real time    0.0018
     EDDAV:  cpu time    0.1096: real time    0.1108
       DOS:  cpu time    0.0001: real time    0.0000
    CHARGE:  cpu time    0.0381: real time    0.0382
    MIXING:  cpu time    0.0123: real time    0.0123
    --------------------------------------------
      LOOP:  cpu time    0.4856: real time    0.4875

 eigenvalue-minimisations  :    24
 total energy-change (2. order) :-0.1793809E-03  (-0.5641381E-05)
 number of electron      10.0000003 magnetization 
 augmentation part        0.0007037 magnetization 

 Broyden mixing:
  rms(total) = 0.16032E-01    rms(broyden)= 0.16032E-01
  rms(prec ) = 0.16310E-01
  weight for this iteration     100.00

 eigenvalues of (default mixing * dielectric matrix)
  average eigenvalue GAMMA=   1.5762
  2.4386  0.9006  1.0055  1.7681  1.7681

 Free energy of the ion-electron system (eV)
  ---------------------------------------------------
  alpha Z        PSCENC =         0.57153965
  Ewald energy   TEWEN  =        72.54986167
  -Hartree energ DENC   =      -550.85797358
  -exchange      EXHF   =         0.00000000
  -V(xc)+E(xc)   XCENC  =        33.47418606
  PAW double counting   =     11469.09465902   -11465.41214151
  entropy T*S    EENTRO =        -0.00000000
  eigenvalues    EBANDS =      -153.27177949
  atomic energy  EATOM  =       579.32078282
  Solvation  Ediel_sol  =         0.00000000
  ---------------------------------------------------
  free energy    TOTEN  =       -14.53086536 eV

  energy without entropy =      -14.53086536  energy(sigma->0) =      -14.53086536


--------------------------------------------------------------------------------------------------------




----------------------------------------- Iteration    2(   7)  ---------------------------------------


    POTLOK:  cpu time    0.3231: real time    0.3261
    SETDIJ:  cpu time    0.0020: real time    0.0020
     EDDAV:  cpu time    0.1089: real time    0.1110
       DOS:  cpu time    0.0000: real time    0.0000
    CHARGE:  cpu time    0.0377: real time    0.0379
    MIXING:  cpu time    0.0117: real time    0.0117
    --------------------------------------------
      LOOP:  cpu time    0.4847: real time    0.4904

 eigenvalue-minimisations  :    24
 total energy-change (2. order) :-0.2831619E-03  (-0.1890880E-05)
 number of electron      10.0000003 magnetization 
 augmentation part        0.0006950 magnetization 

 Broyden mixing:
  rms(total) = 0.33861E-02    rms(broyden)= 0.33860E-02
  rms(prec ) = 0.39065E-02
  weight for this iteration     100.00

 eigenvalues of (default mixing * dielectric matrix)
  average eigenvalue GAMMA=   1.5492
  2.5320  2.3357  1.5431  1.0852  0.8421  0.9570

 Free energy of the ion-electron system (eV)
  ---------------------------------------------------
  alpha Z        PSCENC =         0.57153965
  Ewald energy   TEWEN  =        72.54986167
  -Hartree energ DENC   =      -550.88509064
  -exchange      EXHF   =         0.00000000
  -V(xc)+E(xc)   XCENC  =        33.47554056
  PAW double counting   =     11509.57411692   -11505.89189286
  entropy T*S    EENTRO =        -0.00000000
  eigenvalues    EBANDS =      -153.24600663
  atomic energy  EATOM  =       579.32078282
  Solvation  Ediel_sol  =         0.00000000
  ---------------------------------------------------
  free energy    TOTEN  =       -14.53114852 eV

  energy without entropy =      -14.53114852  energy(sigma->0) =      -14.53114852


--------------------------------------------------------------------------------------------------------




----------------------------------------- Iteration    2(   8)  ---------------------------------------


    POTLOK:  cpu time    0.3186: real time    0.3657
    SETDIJ:  cpu time    0.0016: real time    0.0144
     EDDAV:  cpu time    0.1099: real time    0.1102
       DOS:  cpu time    0.0001: real time    0.0000
    CHARGE:  cpu time    0.0369: real time    0.0372
    MIXING:  cpu time    0.0126: real time    0.0153
    --------------------------------------------
      LOOP:  cpu time    0.4812: real time    0.5446

 eigenvalue-minimisations  :    24
 total energy-change (2. order) :-0.1974821E-03  (-0.1847979E-05)
 number of electron      10.0000003 magnetization 
 augmentation part        0.0007330 magnetization 

 Broyden mixing:
  rms(total) = 0.16529E-02    rms(broyden)= 0.16527E-02
  rms(prec ) = 0.20511E-02
  weight for this iteration     100.00

 eigenvalues of (default mixing * dielectric matrix)
  average eigenvalue GAMMA=   1.4141
  2.6114  2.1913  1.5952  1.1028  0.9528  0.8225  0.6227

 Free energy of the ion-electron system (eV)
  ---------------------------------------------------
  alpha Z        PSCENC =         0.57153965
  Ewald energy   TEWEN  =        72.54986167
  -Hartree energ DENC   =      -550.87638476
  -exchange      EXHF   =         0.00000000
  -V(xc)+E(xc)   XCENC  =        33.47495391
  PAW double counting   =     11522.98607235   -11519.30344479
  entropy T*S    EENTRO =        -0.00000000
  eigenvalues    EBANDS =      -153.25472686
  atomic energy  EATOM  =       579.32078282
  Solvation  Ediel_sol  =         0.00000000
  ---------------------------------------------------
  free energy    TOTEN  =       -14.53134601 eV

  energy without entropy =      -14.53134601  energy(sigma->0) =      -14.53134601


--------------------------------------------------------------------------------------------------------




----------------------------------------- Iteration    2(   9)  ---------------------------------------


    POTLOK:  cpu time    0.3250: real time    0.3291
    SETDIJ:  cpu time    0.0019: real time    0.0019
     EDDAV:  cpu time    0.0974: real time    0.0979
       DOS:  cpu time    0.0000: real time    0.0000
    --------------------------------------------
      LOOP:  cpu time    0.4254: real time    0.4304

 eigenvalue-minimisations  :    20
 total energy-change (2. order) :-0.9990264E-04  (-0.3656818E-06)
 number of electron      10.0000003 magnetization 
 augmentation part        0.0007330 magnetization 

 Free energy of the ion-electron system (eV)
  ---------------------------------------------------
  alpha Z        PSCENC =         0.57153965
  Ewald energy   TEWEN  =        72.54986167
  -Hartree energ DENC   =      -550.89009627
  -exchange      EXHF   =         0.00000000
  -V(xc)+E(xc)   XCENC  =        33.47555564
  PAW double counting   =     11523.06518926   -11519.38269814
  entropy T*S    EENTRO =        -0.00000000
  eigenvalues    EBANDS =      -153.24158055
  atomic energy  EATOM  =       579.32078282
  Solvation  Ediel_sol  =         0.00000000
  ---------------------------------------------------
  free energy    TOTEN  =       -14.53144591 eV

  energy without entropy =      -14.53144591  energy(sigma->0) =      -14.53144591


--------------------------------------------------------------------------------------------------------




 average (electrostatic) potential at core
  the test charge radii are     0.5770  0.5955
  (the norm of the test charge is              1.0000)
       1 -88.3687       2-122.5333
 
 
 
 E-fermi :  -7.6108     XC(G=0):  -1.1959     alpha+bet : -0.3665


 k-point     1 :       0.0000    0.0000    0.0000
  band No.  band energies     occupation 
      1     -30.0295      2.00000
      2     -13.7430      2.00000
      3     -12.1549      2.00000
      4     -12.1549      2.00000
      5      -8.5384      2.00000
      6      -0.9375      0.00000
      7      -0.9375      0.00000
      8      -0.2530      0.00000
      9       1.7734      0.00000
     10       1.8776      0.00000


--------------------------------------------------------------------------------------------------------


 soft charge-density along one line, spin component           1
         0         1         2         3         4         5         6         7         8         9
 total charge-density along one line
 
 pseudopotential strength for first ion, spin component:           1
 12.822  21.578   0.000   0.059  -0.000   0.000   0.104  -0.000
 21.578  36.314   0.000   0.099  -0.000   0.000   0.175  -0.000
  0.000   0.000  -3.205   0.000  -0.000  -5.748   0.000  -0.000
  0.059   0.099   0.000  -3.203   0.000   0.000  -5.744   0.000
 -0.000  -0.000  -0.000   0.000  -3.205  -0.000   0.000  -5.748
  0.000   0.000  -5.748   0.000  -0.000 -10.285   0.000  -0.000
  0.104   0.175   0.000  -5.744   0.000   0.000 -10.281   0.000
 -0.000  -0.000  -0.000   0.000  -5.748  -0.000   0.000 -10.285
 total augmentation occupancy for first ion, spin component:           1
  8.774  -3.291   0.000   8.476  -0.000   0.000  -3.905   0.000
 -3.291   1.467   0.000  -4.235   0.000  -0.000   1.839   0.000
  0.000   0.000   4.133   0.000   0.000  -1.403   0.000   0.000
  8.476  -4.235   0.000  15.478   0.000  -0.000  -6.102   0.000
 -0.000   0.000   0.000   0.000   4.133   0.000   0.000  -1.403
  0.000  -0.000  -1.403  -0.000   0.000   0.476  -0.000   0.000
 -3.905   1.839   0.000  -6.102   0.000  -0.000   2.499   0.000
  0.000   0.000   0.000   0.000  -1.403   0.000   0.000   0.476


------------------------ aborting loop because EDIFF is reached ----------------------------------------


    CHARGE:  cpu time    0.0375: real time    0.0375
    FORLOC:  cpu time    0.0178: real time    0.0179
    FORNL :  cpu time    0.0072: real time    0.0071
    STRESS:  cpu time    0.0660: real time    0.0662
    FORCOR:  cpu time    0.3591: real time    0.3593
    FORHAR:  cpu time    0.0845: real time    0.0870
    MIXING:  cpu time    0.0140: real time    0.0140
    OFIELD:  cpu time    0.0001: real time    0.0001

  FORCE on cell =-STRESS in cart. coord.  units (eV):
  Direction    XX          YY          ZZ          XY          YZ          ZX
  --------------------------------------------------------------------------------------
  Alpha Z     0.57154     0.57154     0.57154
  Ewald     -85.88697   -85.88697   244.32375    -0.00000     0.00000     0.00000
  Hartree   147.67478   147.67478   255.55707    -0.00000    -0.00000    -0.00000
  E(xc)     -46.64187   -46.64187   -45.91216     0.00000    -0.00000    -0.00000
  Local    -265.59842  -265.59842  -673.54034    -0.00000    -0.00000    -0.00000
  n-local    -4.45805    -4.45805    -9.17356    -0.00000     0.00000     0.00000
  augment     0.48439     0.48439     0.81668    -0.00000     0.00000     0.00000
  Kinetic   252.38742   252.38744   238.11983     0.00000    -0.00000    -0.00000
  Fock        0.00000     0.00000     0.00000     0.00000     0.00000     0.00000
  -------------------------------------------------------------------------------------
  Total      -1.46716    -1.46716    10.76280     0.00000     0.00000     0.00000
  in kB      -4.59112    -4.59112    33.67953     0.00000     0.00000     0.00000
  external pressure =        8.17 kB  Pullay stress =        0.00 kB


 VOLUME and BASIS-vectors are now :
 -----------------------------------------------------------------------------
  energy-cutoff  :      700.00
  volume of cell :      512.00
      direct lattice vectors                 reciprocal lattice vectors
     8.000000000  0.000000000  0.000000000     0.125000000  0.000000000  0.000000000
     0.000000000  8.000000000  0.000000000     0.000000000  0.125000000  0.000000000
     0.000000000  0.000000000  8.000000000     0.000000000  0.000000000  0.125000000

  length of vectors
     8.000000000  8.000000000  8.000000000     0.125000000  0.125000000  0.125000000


 FORCES acting on ions
    electron-ion (+dipol)            ewald-force                    non-local-force                 convergence-correction
 -----------------------------------------------------------------------------------------------
   0.456E-15 -.187E-14 0.272E+03   0.845E-16 0.123E-15 -.305E+03   0.000E+00 0.000E+00 0.210E+02   0.946E-14 0.981E-14 0.362E-02
   0.192E-14 -.626E-14 -.243E+03   -.476E-16 -.676E-16 0.305E+03   0.000E+00 0.000E+00 -.506E+02   0.105E-13 0.104E-13 0.707E-02
 -----------------------------------------------------------------------------------------------
   0.237E-14 -.813E-14 0.296E+02   0.369E-16 0.557E-16 0.000E+00   0.000E+00 0.000E+00 -.296E+02   0.200E-13 0.202E-13 0.107E-01
 
 
 POSITION                                       TOTAL-FORCE (eV/Angst)
 -----------------------------------------------------------------------------------
      0.00000      0.00000      0.04189         0.000000     -0.000000    -11.513690
      0.00000      0.00000      1.10111        -0.000000      0.000000     11.513690
 -----------------------------------------------------------------------------------
    total drift:                                0.000000      0.000000      0.005077


--------------------------------------------------------------------------------------------------------



  FREE ENERGIE OF THE ION-ELECTRON SYSTEM (eV)
  ---------------------------------------------------
  free  energy   TOTEN  =       -14.53144591 eV

  energy  without entropy=      -14.53144591  energy(sigma->0) =      -14.53144591
 
 d Force =-0.4459724E+00[-0.965E+00, 0.728E-01]  d Energy =-0.3955386E+00-0.504E-01
 d Force =-0.2371132E+02[-0.255E+02,-0.219E+02]  d Ewald  =-0.2364202E+02-0.693E-01


--------------------------------------------------------------------------------------------------------


    POTLOK:  cpu time    0.3319: real time    0.3340


--------------------------------------------------------------------------------------------------------


 stress matrix after NEB project (eV)
     -1.46716      0.00000      0.00000
      0.00000     -1.46716      0.00000
      0.00000      0.00000     10.76280
  FORCES: max atom, RMS    11.513690   11.513690
  FORCE total and by dimension   16.282817   11.513690
  Stress total and by dimension   10.960979   10.762804
 Steepest descent step on ions:
 trial-energy change:    0.395539  1 .order    0.445972   -0.072761    0.964706
  (g-gl).g = 0.728E-01      g.g   = 0.728E-01  gl.gl    = 0.000E+00
 g(Force)  = 0.728E-01   g(Stress)= 0.000E+00 ortho     = 0.000E+00
 gamma     =   0.00000
 trial     =   1.00000
 opt step  =   0.09528  (harmonic =   0.07013) maximal distance =0.00399145
 next E    =   -14.930494   (d E  =  -0.00351)


--------------------------------------------------------------------------------------------------------


    WAVPRE:  cpu time    0.0850: real time    0.0856
 FEWALD executed in parallel
    FEWALD:  cpu time    0.0002: real time    0.0002
    ORTHCH:  cpu time    0.0025: real time    0.0025
     LOOP+:  cpu time    5.3752: real time    5.4858


----------------------------------------- Iteration    3(   1)  ---------------------------------------


    POTLOK:  cpu time    0.3452: real time    0.3455
    SETDIJ:  cpu time    0.0020: real time    0.0020
     EDDAV:  cpu time    0.1007: real time    0.1008
       DOS:  cpu time    0.0003: real time    0.0003
    CHARGE:  cpu time    0.0397: real time    0.0397
    MIXING:  cpu time    0.0096: real time    0.0096
    --------------------------------------------
      LOOP:  cpu time    0.4983: real time    0.4991

 eigenvalue-minimisations  :    20
 total energy-change (2. order) :-0.4392421E+00  (-0.3208007E+01)
 number of electron      10.0000002 magnetization 
 augmentation part       -0.0077693 magnetization 

 Broyden mixing:
  rms(total) = 0.79999E+00    rms(broyden)= 0.79988E+00
  rms(prec ) = 0.81138E+00
  weight for this iteration     100.00

 Free energy of the ion-electron system (eV)
  ---------------------------------------------------
  alpha Z        PSCENC =         0.57153965
  Ewald energy   TEWEN  =        51.00714420
  -Hartree energ DENC   =      -538.68190142
  -exchange      EXHF   =         0.00000000
  -V(xc)+E(xc)   XCENC  =        33.09304014
  PAW double counting   =     11518.87915987   -11515.19665570
  entropy T*S    EENTRO =        -0.00000000
  eigenvalues    EBANDS =      -143.96369768
  atomic energy  EATOM  =       579.32078282
  Solvation  Ediel_sol  =         0.00000000
  ---------------------------------------------------
  free energy    TOTEN  =       -14.97058813 eV

  energy without entropy =      -14.97058813  energy(sigma->0) =      -14.97058813


--------------------------------------------------------------------------------------------------------




----------------------------------------- Iteration    3(   2)  ---------------------------------------


    POTLOK:  cpu time    0.2872: real time    0.2934
    SETDIJ:  cpu time    0.0022: real time    0.0022
     EDDAV:  cpu time    0.0972: real time    0.1010
       DOS:  cpu time    0.0001: real time    0.0001
    CHARGE:  cpu time    0.0372: real time    0.0374
    MIXING:  cpu time    0.0088: real time    0.0088
    --------------------------------------------
      LOOP:  cpu time    0.4342: real time    0.4446

 eigenvalue-minimisations  :    20
 total energy-change (2. order) : 0.2801155E-01  (-0.3339725E-01)
 number of electron      10.0000002 magnetization 
 augmentation part       -0.0106363 magnetization 

 Broyden mixing:
  rms(total) = 0.22548E+00    rms(broyden)= 0.22545E+00
  rms(prec ) = 0.23554E+00
  weight for this iteration     100.00

 eigenvalues of (default mixing * dielectric matrix)
  average eigenvalue GAMMA=   1.1294
  1.1294

 Free energy of the ion-electron system (eV)
  ---------------------------------------------------
  alpha Z        PSCENC =         0.57153965
  Ewald energy   TEWEN  =        51.00714420
  -Hartree energ DENC   =      -536.09741626
  -exchange      EXHF   =         0.00000000
  -V(xc)+E(xc)   XCENC  =        32.95969923
  PAW double counting   =     10263.71003420   -10259.96174916
  entropy T*S    EENTRO =        -0.00000000
  eigenvalues    EBANDS =      -146.45261126
  atomic energy  EATOM  =       579.32078282
  Solvation  Ediel_sol  =         0.00000000
  ---------------------------------------------------
  free energy    TOTEN  =       -14.94257658 eV

  energy without entropy =      -14.94257658  energy(sigma->0) =      -14.94257658


--------------------------------------------------------------------------------------------------------




----------------------------------------- Iteration    3(   3)  ---------------------------------------


    POTLOK:  cpu time    0.2855: real time    0.2862
    SETDIJ:  cpu time    0.0022: real time    0.0022
     EDDAV:  cpu time    0.1365: real time    0.1371
       DOS:  cpu time    0.0001: real time    0.0001
    CHARGE:  cpu time    0.0375: real time    0.0375
    MIXING:  cpu time    0.0091: real time    0.0091
    --------------------------------------------
      LOOP:  cpu time    0.4722: real time    0.4738

 eigenvalue-minimisations  :    32
 total energy-change (2. order) : 0.1239101E-01  (-0.3891945E-02)
 number of electron      10.0000002 magnetization 
 augmentation part       -0.0094915 magnetization 

 Broyden mixing:
  rms(total) = 0.13558E+00    rms(broyden)= 0.13558E+00
  rms(prec ) = 0.13778E+00
  weight for this iteration     100.00

 eigenvalues of (default mixing * dielectric matrix)
  average eigenvalue GAMMA=   1.6137
  1.0944  2.1329

 Free energy of the ion-electron system (eV)
  ---------------------------------------------------
  alpha Z        PSCENC =         0.57153965
  Ewald energy   TEWEN  =        51.00714420
  -Hartree energ DENC   =      -534.46286167
  -exchange      EXHF   =         0.00000000
  -V(xc)+E(xc)   XCENC  =        32.88072427
  PAW double counting   =      9663.78967420    -9659.99968093
  entropy T*S    EENTRO =        -0.00000000
  eigenvalues    EBANDS =      -148.03750810
  atomic energy  EATOM  =       579.32078282
  Solvation  Ediel_sol  =         0.00000000
  ---------------------------------------------------
  free energy    TOTEN  =       -14.93018557 eV

  energy without entropy =      -14.93018557  energy(sigma->0) =      -14.93018557


--------------------------------------------------------------------------------------------------------




----------------------------------------- Iteration    3(   4)  ---------------------------------------


    POTLOK:  cpu time    0.2897: real time    0.3278
    SETDIJ:  cpu time    0.0015: real time    0.0015
     EDDAV:  cpu time    0.0970: real time    0.0970
       DOS:  cpu time    0.0001: real time    0.0001
    CHARGE:  cpu time    0.0373: real time    0.0394
    MIXING:  cpu time    0.0104: real time    0.0104
    --------------------------------------------
      LOOP:  cpu time    0.4374: real time    0.4779

 eigenvalue-minimisations  :    20
 total energy-change (2. order) : 0.5647757E-03  (-0.8774608E-03)
 number of electron      10.0000002 magnetization 
 augmentation part       -0.0091846 magnetization 

 Broyden mixing:
  rms(total) = 0.48537E-01    rms(broyden)= 0.48535E-01
  rms(prec ) = 0.49109E-01
  weight for this iteration     100.00

 eigenvalues of (default mixing * dielectric matrix)
  average eigenvalue GAMMA=   1.6321
  2.8019  1.0472  1.0472

 Free energy of the ion-electron system (eV)
  ---------------------------------------------------
  alpha Z        PSCENC =         0.57153965
  Ewald energy   TEWEN  =        51.00714420
  -Hartree energ DENC   =      -533.67215515
  -exchange      EXHF   =         0.00000000
  -V(xc)+E(xc)   XCENC  =        32.84538111
  PAW double counting   =      9067.18993377    -9063.37431811
  entropy T*S    EENTRO =        -0.00000000
  eigenvalues    EBANDS =      -148.81792908
  atomic energy  EATOM  =       579.32078282
  Solvation  Ediel_sol  =         0.00000000
  ---------------------------------------------------
  free energy    TOTEN  =       -14.92962079 eV

  energy without entropy =      -14.92962079  energy(sigma->0) =      -14.92962079


--------------------------------------------------------------------------------------------------------




----------------------------------------- Iteration    3(   5)  ---------------------------------------


    POTLOK:  cpu time    0.3042: real time    0.3096
    SETDIJ:  cpu time    0.0015: real time    0.0015
     EDDAV:  cpu time    0.0954: real time    0.0955
       DOS:  cpu time    0.0000: real time    0.0001
    CHARGE:  cpu time    0.0374: real time    0.0374
    MIXING:  cpu time    0.0103: real time    0.0103
    --------------------------------------------
      LOOP:  cpu time    0.4503: real time    0.4561

 eigenvalue-minimisations  :    20
 total energy-change (2. order) :-0.3595477E-03  (-0.6215658E-04)
 number of electron      10.0000002 magnetization 
 augmentation part       -0.0090896 magnetization 

 Broyden mixing:
  rms(total) = 0.21598E-01    rms(broyden)= 0.21598E-01
  rms(prec ) = 0.22505E-01
  weight for this iteration     100.00

 eigenvalues of (default mixing * dielectric matrix)
  average eigenvalue GAMMA=   1.5787
  2.5954  0.8721  1.4727  1.3748

 Free energy of the ion-electron system (eV)
  ---------------------------------------------------
  alpha Z        PSCENC =         0.57153965
  Ewald energy   TEWEN  =        51.00714420
  -Hartree energ DENC   =      -533.67382571
  -exchange      EXHF   =         0.00000000
  -V(xc)+E(xc)   XCENC  =        32.84667854
  PAW double counting   =      8829.94517940    -8826.12589049
  entropy T*S    EENTRO =        -0.00000000
  eigenvalues    EBANDS =      -148.82158874
  atomic energy  EATOM  =       579.32078282
  Solvation  Ediel_sol  =         0.00000000
  ---------------------------------------------------
  free energy    TOTEN  =       -14.92998034 eV

  energy without entropy =      -14.92998034  energy(sigma->0) =      -14.92998034


--------------------------------------------------------------------------------------------------------




----------------------------------------- Iteration    3(   6)  ---------------------------------------


    POTLOK:  cpu time    0.2943: real time    0.3073
    SETDIJ:  cpu time    0.0015: real time    0.0015
     EDDAV:  cpu time    0.0955: real time    0.0958
       DOS:  cpu time    0.0001: real time    0.0000
    --------------------------------------------
      LOOP:  cpu time    0.3925: real time    0.4060

 eigenvalue-minimisations  :    20
 total energy-change (2. order) :-0.9731795E-04  (-0.3606737E-04)
 number of electron      10.0000002 magnetization 
 augmentation part       -0.0090896 magnetization 

 Free energy of the ion-electron system (eV)
  ---------------------------------------------------
  alpha Z        PSCENC =         0.57153965
  Ewald energy   TEWEN  =        51.00714420
  -Hartree energ DENC   =      -533.83488097
  -exchange      EXHF   =         0.00000000
  -V(xc)+E(xc)   XCENC  =        32.85415763
  PAW double counting   =      8811.56885640    -8807.75368911
  entropy T*S    EENTRO =        -0.00000000
  eigenvalues    EBANDS =      -148.66398828
  atomic energy  EATOM  =       579.32078282
  Solvation  Ediel_sol  =         0.00000000
  ---------------------------------------------------
  free energy    TOTEN  =       -14.93007766 eV

  energy without entropy =      -14.93007766  energy(sigma->0) =      -14.93007766


--------------------------------------------------------------------------------------------------------




 average (electrostatic) potential at core
  the test charge radii are     0.5770  0.5955
  (the norm of the test charge is              1.0000)
       1 -88.8087       2-122.3074
 
 
 
 E-fermi :  -7.7835     XC(G=0):  -1.1280     alpha+bet : -0.3665


 k-point     1 :       0.0000    0.0000    0.0000
  band No.  band energies     occupation 
      1     -28.9416      2.00000
      2     -13.7781      2.00000
      3     -11.4499      2.00000
      4     -11.4499      2.00000
      5      -8.7125      2.00000
      6      -1.7056      0.00000
      7      -1.7056      0.00000
      8      -0.1718      0.00000
      9       1.7463      0.00000
     10       1.9674      0.00000


--------------------------------------------------------------------------------------------------------


 soft charge-density along one line, spin component           1
         0         1         2         3         4         5         6         7         8         9
 total charge-density along one line
 
 pseudopotential strength for first ion, spin component:           1
 12.822  21.581   0.000   0.050   0.000   0.000   0.088   0.000
 21.581  36.320   0.000   0.083   0.000   0.000   0.148   0.000
  0.000   0.000  -3.221   0.000  -0.000  -5.777   0.000  -0.000
  0.050   0.083   0.000  -3.217   0.000   0.000  -5.770   0.000
  0.000   0.000  -0.000   0.000  -3.221  -0.000   0.000  -5.777
  0.000   0.000  -5.777   0.000  -0.000 -10.339   0.000  -0.000
  0.088   0.148   0.000  -5.770   0.000   0.000 -10.327   0.000
  0.000   0.000  -0.000   0.000  -5.777  -0.000   0.000 -10.339
 total augmentation occupancy for first ion, spin component:           1
  7.080  -2.514   0.000   6.609   0.000   0.000  -3.027   0.000
 -2.514   1.138   0.000  -3.403   0.000   0.000   1.439   0.000
  0.000   0.000   3.253   0.000   0.000  -1.050   0.000   0.000
  6.609  -3.403   0.000  12.626  -0.000   0.000  -4.864  -0.000
  0.000   0.000   0.000  -0.000   3.253   0.000  -0.000  -1.050
  0.000   0.000  -1.050   0.000   0.000   0.339   0.000   0.000
 -3.027   1.439   0.000  -4.864  -0.000   0.000   1.951   0.000
  0.000   0.000   0.000  -0.000  -1.050   0.000   0.000   0.339


------------------------ aborting loop because EDIFF is reached ----------------------------------------


    CHARGE:  cpu time    0.0370: real time    0.0370
    FORLOC:  cpu time    0.0175: real time    0.0175
    FORNL :  cpu time    0.0073: real time    0.0088
    STRESS:  cpu time    0.0650: real time    0.0671
    FORCOR:  cpu time    0.3551: real time    0.3627
    FORHAR:  cpu time    0.0842: real time    0.0872
    MIXING:  cpu time    0.0111: real time    0.0117
    OFIELD:  cpu time    0.0001: real time    0.0001

  FORCE on cell =-STRESS in cart. coord.  units (eV):
  Direction    XX          YY          ZZ          XY          YZ          ZX
  --------------------------------------------------------------------------------------
  Alpha Z     0.57154     0.57154     0.57154
  Ewald     -85.99322   -85.99322   222.99354     0.00000     0.00000     0.00000
  Hartree   141.03666   141.03666   251.76112    -0.00000    -0.00000    -0.00000
  E(xc)     -45.90488   -45.90488   -45.12534     0.00000    -0.00000    -0.00000
  Local    -255.59829  -255.59829  -655.76217     0.00000    -0.00000    -0.00000
  n-local    -2.65100    -2.65105    -7.40782    -0.00000     0.00000     0.00000
  augment     0.45625     0.45625     0.67995    -0.00000    -0.00000     0.00000
  Kinetic   246.66611   246.66624   230.76873    -0.00000     0.00000     0.00000
  Fock        0.00000     0.00000     0.00000     0.00000     0.00000     0.00000
  -------------------------------------------------------------------------------------
  Total      -1.41679    -1.41679    -1.52045     0.00000     0.00000     0.00000
  in kB      -4.43350    -4.43350    -4.75788     0.00000     0.00000     0.00000
  external pressure =       -4.54 kB  Pullay stress =        0.00 kB


 VOLUME and BASIS-vectors are now :
 -----------------------------------------------------------------------------
  energy-cutoff  :      700.00
  volume of cell :      512.00
      direct lattice vectors                 reciprocal lattice vectors
     8.000000000  0.000000000  0.000000000     0.125000000  0.000000000  0.000000000
     0.000000000  8.000000000  0.000000000     0.000000000  0.125000000  0.000000000
     0.000000000  0.000000000  8.000000000     0.000000000  0.000000000  0.125000000

  length of vectors
     8.000000000  8.000000000  8.000000000     0.125000000  0.125000000  0.125000000


 FORCES acting on ions
    electron-ion (+dipol)            ewald-force                    non-local-force                 convergence-correction
 -----------------------------------------------------------------------------------------------
   0.249E-14 -.940E-14 0.238E+03   0.141E-15 0.921E-16 -.265E+03   0.000E+00 -.414E-24 0.266E+02   0.768E-14 0.168E-13 -.295E-01
   0.449E-15 -.101E-14 -.214E+03   -.104E-15 -.365E-16 0.265E+03   0.000E+00 0.331E-23 -.513E+02   -.137E-13 0.124E-13 0.257E-01
 -----------------------------------------------------------------------------------------------
   0.294E-14 -.104E-13 0.247E+02   0.369E-16 0.557E-16 0.000E+00   0.000E+00 0.290E-23 -.247E+02   -.601E-14 0.292E-13 -.374E-02
 
 
 POSITION                                       TOTAL-FORCE (eV/Angst)
 -----------------------------------------------------------------------------------
      0.00000      0.00000      0.00399         0.000000     -0.000000     -0.023589
      0.00000      0.00000      1.13901        -0.000000      0.000000      0.023589
 -----------------------------------------------------------------------------------
    total drift:                               -0.000000      0.000000      0.015957


--------------------------------------------------------------------------------------------------------



  FREE ENERGIE OF THE ION-ELECTRON SYSTEM (eV)
  ---------------------------------------------------
  free  energy   TOTEN  =       -14.93007766 eV

  energy  without entropy=      -14.93007766  energy(sigma->0) =      -14.93007766
 
 d Force = 0.4372907E+00[ 0.179E-02, 0.873E+00]  d Energy = 0.3986317E+00 0.387E-01
 d Force = 0.2159476E+02[ 0.201E+02, 0.231E+02]  d Ewald  = 0.2154272E+02 0.520E-01


--------------------------------------------------------------------------------------------------------


    POTLOK:  cpu time    0.3020: real time    0.3190


--------------------------------------------------------------------------------------------------------


 stress matrix after NEB project (eV)
     -1.41679      0.00000      0.00000
      0.00000     -1.41679      0.00000
      0.00000      0.00000     -1.52045
  FORCES: max atom, RMS     0.023589    0.023589
  FORCE total and by dimension    0.033359    0.023589
  Stress total and by dimension    2.515228    1.520451


--------------------------------------------------------------------------------------------------------


  
 reached required accuracy - stopping structural energy minimisation
 writing wavefunctions
     LOOP+:  cpu time    3.5743: real time    3.6820
    4ORBIT:  cpu time    0.0000: real time    0.0000

 total amount of memory used by VASP on root node    96832. kBytes
========================================================================

   base      :      30000. kBytes
   nonl-proj :       1724. kBytes
   fftplans  :      22159. kBytes
   grid      :      42083. kBytes
   one-center:          3. kBytes
   wavefun   :        863. kBytes
 
  
  
 General timing and accounting informations for this job:
 ========================================================
  
                  Total CPU time used (sec):       23.921
                            User time (sec):       19.599
                          System time (sec):        4.323
                         Elapsed time (sec):       24.883
  
                   Maximum memory used (kb):      188952.
                   Average memory used (kb):           0.
  
                          Minor page faults:       273153
                          Major page faults:           94
                 Voluntary context switches:          940
