 vasp.5.4.1 05Feb16 (build Nov 22 2023 12:07:42) gamma-only                     
  
 executed on           IFC91_ompi date 2026.09.29  23:50:29
 running on    2 total cores
 distrk:  each k-point on    2 cores,    1 groups
 distr:  one band on NCORES_PER_BAND=   1 cores,    2 groups


--------------------------------------------------------------------------------------------------------


 INCAR:
 POTCAR:    PAW_PBE C_h 06Feb2004                 
 POTCAR:    PAW_PBE O_h 06Feb2004                 
 POTCAR:    PAW_PBE C_h 06Feb2004                 
   VRHFIN =C: s2p2                                                              
   LEXCH  = PE                                                                  
   EATOM  =   147.1560 eV,   10.8157 Ry                                         
                                                                                
   TITEL  = PAW_PBE C_h 06Feb2004                                               
   LULTRA =        F    use ultrasoft PP ?                                      
   IUNSCR =        1    unscreen: 0-lin 1-nonlin 2-no                           
   RPACOR =    0.800    partial core radius                                     
   POMASS =   12.011; ZVAL   =    4.000    mass and valenz                      
   RCORE  =    1.100    outmost cutoff radius                                   
   RWIGS  =    1.630; RWIGS  =    0.863    wigner-seitz radius (au A)           
   ENMAX  =  700.000; ENMIN  =  500.000 eV                                      
   ICORE  =        2    local potential                                         
   LCOR   =        T    correct aug charges                                     
   LPAW   =        T    paw PP                                                  
   EAUG   =  946.768                                                            
   DEXC   =    0.000                                                            
   RMAX   =    1.128    core radius for proj-oper                               
   RAUG   =    1.300    factor for augmentation sphere                          
   RDEP   =    1.162    radius for radial grids                                 
   RDEPT  =    1.088    core radius for aug-charge                              
                                                                                
   Atomic configuration                                                         
    4 entries                                                                   
     n  l   j            E        occ.                                          
     1  0  0.50      -273.3789   2.0000                                         
     2  0  0.50       -13.7508   2.0000                                         
     2  1  0.50        -5.2854   2.0000                                         
     3  2  1.50        -5.4423   0.0000                                         
   Description                                                                  
     l       E           TYP  RCUT    TYP  RCUT                                 
     0    -13.7508458     23  1.100                                             
     0     -8.2022199     23  1.100                                             
     1     -5.2854383     23  1.100                                             
     1      1.1560700     23  1.100                                             
     2     -5.4423304      7  1.100                                             
  local pseudopotential read in
  partial core-charges read in
  partial kinetic energy density read in
  atomic valenz-charges read in
  non local Contribution for L=           0  read in
    real space projection operators read in
  non local Contribution for L=           0  read in
    real space projection operators read in
  non local Contribution for L=           1  read in
    real space projection operators read in
  non local Contribution for L=           1  read in
    real space projection operators read in
    PAW grid and wavefunctions read in
 
   number of l-projection  operators is LMAX  =           4
   number of lm-projection operators is LMMAX =           8
 
 POTCAR:    PAW_PBE O_h 06Feb2004                 
   VRHFIN =O: s2p4                                                              
   LEXCH  = PE                                                                  
   EATOM  =   432.3788 eV,   31.7789 Ry                                         
                                                                                
   TITEL  = PAW_PBE O_h 06Feb2004                                               
   LULTRA =        F    use ultrasoft PP ?                                      
   IUNSCR =        1    unscreen: 0-lin 1-nonlin 2-no                           
   RPACOR =    0.800    partial core radius                                     
   POMASS =   16.000; ZVAL   =    6.000    mass and valenz                      
   RCORE  =    1.100    outmost cutoff radius                                   
   RWIGS  =    1.400; RWIGS  =    0.741    wigner-seitz radius (au A)           
   ENMAX  =  700.000; ENMIN  =  500.000 eV                                      
   ICORE  =        2    local potential                                         
   LCOR   =        T    correct aug charges                                     
   LPAW   =        T    paw PP                                                  
   EAUG   =  888.804                                                            
   DEXC   =    0.000                                                            
   RMAX   =    1.128    core radius for proj-oper                               
   RAUG   =    1.300    factor for augmentation sphere                          
   RDEP   =    1.125    radius for radial grids                                 
   RDEPT  =    1.088    core radius for aug-charge                              
                                                                                
   Atomic configuration                                                         
    4 entries                                                                   
     n  l   j            E        occ.                                          
     1  0  0.50      -514.6923   2.0000                                         
     2  0  0.50       -23.9615   2.0000                                         
     2  1  0.50        -9.0305   4.0000                                         
     3  2  1.50        -9.5241   0.0000                                         
   Description                                                                  
     l       E           TYP  RCUT    TYP  RCUT                                 
     0    -23.9615319     23  1.100                                             
     0    -25.3221145     23  1.100                                             
     1     -9.0304911     23  1.100                                             
     1     -5.4802209     23  1.100                                             
     2     -9.5240782      7  1.100                                             
  local pseudopotential read in
  partial core-charges read in
  partial kinetic energy density read in
  atomic valenz-charges read in
  non local Contribution for L=           0  read in
    real space projection operators read in
  non local Contribution for L=           0  read in
    real space projection operators read in
  non local Contribution for L=           1  read in
    real space projection operators read in
  non local Contribution for L=           1  read in
    real space projection operators read in
    PAW grid and wavefunctions read in
 
   number of l-projection  operators is LMAX  =           4
   number of lm-projection operators is LMMAX =           8
 
  PAW_PBE C_h 06Feb2004                 :
 energy of atom  1       EATOM= -147.1560
 kinetic energy error for atom=    0.0286 (will be added to EATOM!!)
  PAW_PBE O_h 06Feb2004                 :
 energy of atom  2       EATOM= -432.3788
 kinetic energy error for atom=    0.1855 (will be added to EATOM!!)
 
 
 POSCAR: CO dimer in a box                       
  positions in cartesian coordinates
  No initial velocities read in
 exchange correlation table for  LEXCH =        8
   RHO(1)=    0.500       N(1)  =     2000
   RHO(2)=  100.500       N(2)  =     4000

 VTST: version 3.2, (02/03/18)

 CHAIN: initializing optimizer
 
 OPT: Using VASP Dynamics algorithm
 CHAIN: Read ICHAIN            0
 
 POSCAR: CO dimer in a box                       
  positions in cartesian coordinates
  No initial velocities read in
 


--------------------------------------------------------------------------------------------------------


 ion  position               nearest neighbor table
   1  0.000  0.000  0.000-   2 1.14
   2  0.000  0.000  0.143-   1 1.14
 
  LATTYP: Found a simple cubic cell.
 ALAT       =     8.0000000000
  
  Lattice vectors:
  
 A1 = (   8.0000000000,   0.0000000000,   0.0000000000)
 A2 = (   0.0000000000,   8.0000000000,   0.0000000000)
 A3 = (   0.0000000000,   0.0000000000,   8.0000000000)


Analysis of symmetry for initial positions (statically):
=====================================================================
 Subroutine PRICEL returns:
 Original cell was already a primitive cell.
 

 Routine SETGRP: Setting up the symmetry group for a 
 simple cubic supercell.


 Subroutine GETGRP returns: Found  8 space group operations
 (whereof  8 operations were pure point group operations)
 out of a pool of 48 trial point group operations.


The static configuration has the point symmetry C_4v.


Analysis of symmetry for dynamics (positions and initial velocities):
=====================================================================
 Subroutine PRICEL returns:
 Original cell was already a primitive cell.
 

 Routine SETGRP: Setting up the symmetry group for a 
 simple cubic supercell.


 Subroutine GETGRP returns: Found  8 space group operations
 (whereof  8 operations were pure point group operations)
 out of a pool of 48 trial point group operations.


The dynamic configuration has the point symmetry C_4v.


Analysis of constrained symmetry for selective dynamics:
=====================================================================
 Subroutine PRICEL returns:
 Original cell was already a primitive cell.
 

 Routine SETGRP: Setting up the symmetry group for a 
 simple cubic supercell.


 Subroutine GETGRP returns: Found  8 space group operations
 (whereof  8 operations were pure point group operations)
 out of a pool of 48 trial point group operations.


The constrained configuration has the point symmetry C_4v.


 Subroutine INISYM returns: Found  8 space group operations
 (whereof  8 operations are pure point group operations),
 and found     1 'primitive' translations

 
 
 KPOINTS: Gamma-point only                        

Automatic generation of k-mesh.
Space group operators:
 irot       det(A)        alpha          n_x          n_y          n_z        tau_x        tau_y        tau_z
    1     1.000000     0.000000     1.000000     0.000000     0.000000     0.000000     0.000000     0.000000
    2     1.000000    90.000000     0.000000     0.000000    -1.000000     0.000000     0.000000     0.000000
    3     1.000000   180.000000     0.000000     0.000000     1.000000     0.000000     0.000000     0.000000
    4     1.000000    90.000000     0.000000     0.000000     1.000000     0.000000     0.000000     0.000000
    5    -1.000000   180.000000     1.000000     0.000000     0.000000     0.000000     0.000000     0.000000
    6    -1.000000   180.000000     0.707107     0.707107     0.000000     0.000000     0.000000     0.000000
    7    -1.000000   180.000000     0.000000     1.000000     0.000000     0.000000     0.000000     0.000000
    8    -1.000000   180.000000     0.707107    -0.707107     0.000000     0.000000     0.000000     0.000000
 
 Subroutine IBZKPT returns following result:
 ===========================================
 
 Found      1 irreducible k-points:
 
 Following reciprocal coordinates:
            Coordinates               Weight
  0.000000  0.000000  0.000000      1.000000
 
 Following cartesian coordinates:
            Coordinates               Weight
  0.000000  0.000000  0.000000      1.000000
 
 
 Subroutine IBZKPT_HF returns following result:
 ==============================================
 
 Found      1 k-points in 1st BZ
 the following      1 k-points will be used (e.g. in the exchange kernel)
 Following reciprocal coordinates:   # in IRBZ
  0.000000  0.000000  0.000000    1.00000000   1 t-inv F


--------------------------------------------------------------------------------------------------------




 Dimension of arrays:
   k-points           NKPTS =      1   k-points in BZ     NKDIM =      1   number of bands    NBANDS=     10
   number of dos      NEDOS =    301   number of ions     NIONS =      2
   non local maximal  LDIM  =      4   non local SUM 2l+1 LMDIM =      8
   total plane-waves  NPLWV = 157464
   max r-space proj   IRMAX =      1   max aug-charges    IRDMAX=   2442
   dimension x,y,z NGX =    54 NGY =   54 NGZ =   54
   dimension x,y,z NGXF=   108 NGYF=  108 NGZF=  108
   support grid    NGXF=   108 NGYF=  108 NGZF=  108
   ions per type =               1   1
 NGX,Y,Z   is equivalent  to a cutoff of  11.22, 11.22, 11.22 a.u.
 NGXF,Y,Z  is equivalent  to a cutoff of  22.44, 22.44, 22.44 a.u.


 I would recommend the setting:
   dimension x,y,z NGX =    52 NGY =   52 NGZ =   52
 SYSTEM =  CO dimer in a box                       
 POSCAR =  CO dimer in a box                       

 Startparameter for this run:
   NWRITE =      2    write-flag & timer
   PREC   = normal    normal or accurate (medium, high low for compatibility)
   ISTART =      0    job   : 0-new  1-cont  2-samecut
   ICHARG =      2    charge: 1-file 2-atom 10-const
   ISPIN  =      1    spin polarized calculation?
   LNONCOLLINEAR =      F non collinear calculations
   LSORBIT =      F    spin-orbit coupling
   INIWAV =      1    electr: 0-lowe 1-rand  2-diag
   LASPH  =      F    aspherical Exc in radial PAW
   METAGGA=      F    non-selfconsistent MetaGGA calc.

 Electronic Relaxation 1
   ENCUT  =  700.0 eV  51.45 Ry    7.17 a.u.  17.26 17.26 17.26*2*pi/ulx,y,z
   ENINI  =  700.0     initial cutoff
   ENAUG  =  946.8 eV  augmentation charge cutoff
   NELM   =     60;   NELMIN=  2; NELMDL= -5     # of ELM steps 
   EDIFF  = 0.1E-05   stopping-criterion for ELM
   LREAL  =      F    real-space projection
   NLSPLINE    = F    spline interpolate recip. space projectors
   LCOMPAT=      F    compatible to vasp.4.4
   GGA_COMPAT  = T    GGA compatible to vasp.4.4-vasp.4.6
   LMAXPAW     = -100 max onsite density
   LMAXMIX     =    2 max onsite mixed and CHGCAR
   VOSKOWN=      0    Vosko Wilk Nusair interpolation
   ROPT   =    0.00000   0.00000
 Ionic relaxation
   EDIFFG = 0.1E-04   stopping-criterion for IOM
   NSW    =     61    number of steps for IOM
   NBLOCK =      1;   KBLOCK =      1    inner block; outer block 
   IBRION =      5    ionic relax: 0-MD 1-quasi-New 2-CG
   NFREE  =      2    steps in history (QN), initial steepest desc. (CG)
   ISIF   =      2    stress and relaxation
   IWAVPR =     11    prediction:  0-non 1-charg 2-wave 3-comb
   ISYM   =      2    0-nonsym 1-usesym 2-fastsym
   LCORR  =      T    Harris-Foulkes like correction to forces

   POTIM  = 0.0200    time-step for ionic-motion
   TEIN   =    0.0    initial temperature
   TEBEG  =    0.0;   TEEND  =   0.0 temperature during run
   SMASS  =  -3.00    Nose mass-parameter (am)
   estimated Nose-frequenzy (Omega)   =  0.10E-29 period in steps =****** mass=  -0.146E-26a.u.
   SCALEE = 1.0000    scale energy and forces
   NPACO  =    256;   APACO  = 16.0  distance and # of slots for P.C.
   PSTRESS=    0.0 pullay stress

  Mass of Ions in am
   POMASS =  12.01 16.00
  Ionic Valenz
   ZVAL   =   4.00  6.00
  Atomic Wigner-Seitz radii
   RWIGS  =  -1.00 -1.00
  virtual crystal weights 
   VCA    =   1.00  1.00
   NELECT =      10.0000    total number of electrons
   NUPDOWN=      -1.0000    fix difference up-down

 DOS related values:
   EMIN   =  10.00;   EMAX   =-10.00  energy-range for DOS
   EFERMI =   0.00
   ISMEAR =     0;   SIGMA  =   0.20  broadening in eV -4-tet -1-fermi 0-gaus

 Electronic relaxation 2 (details)
   IALGO  =     38    algorithm
   LDIAG  =      T    sub-space diagonalisation (order eigenvalues)
   LSUBROT=      F    optimize rotation matrix (better conditioning)
   TURBO    =      0    0=normal 1=particle mesh
   IRESTART =      0    0=no restart 2=restart with 2 vectors
   NREBOOT  =      0    no. of reboots
   NMIN     =      0    reboot dimension
   EREF     =   0.00    reference energy to select bands
   IMIX   =      4    mixing-type and parameters
     AMIX     =   0.40;   BMIX     =  1.00
     AMIX_MAG =   1.60;   BMIX_MAG =  1.00
     AMIN     =   0.10
     WC   =   100.;   INIMIX=   1;  MIXPRE=   1;  MAXMIX= -45

 Intra band minimization:
   WEIMIN = 0.0010     energy-eigenvalue tresh-hold
   EBREAK =  0.25E-07  absolut break condition
   DEPER  =   0.30     relativ break condition  

   TIME   =   0.40     timestep for ELM

  volume/ion in A,a.u.               =     256.00      1727.57
  Fermi-wavevector in a.u.,A,eV,Ry     =   0.440878  0.833138  2.644608  0.194373
  Thomas-Fermi vector in A             =   1.415836
 
 Write flags
   LWAVE  =      T    write WAVECAR
   LCHARG =      T    write CHGCAR
   LVTOT  =      F    write LOCPOT, total local potential
   LVHAR  =      F    write LOCPOT, Hartree potential only
   LELF   =      F    write electronic localiz. function (ELF)
   LORBIT =      0    0 simple, 1 ext, 2 COOP (PROOUT)


 Dipole corrections
   LMONO  =      F    monopole corrections only (constant potential shift)
   LDIPOL =      F    correct potential (dipole corrections)
   IDIPOL =      0    1-x, 2-y, 3-z, 4-all directions 
   EPSILON=  1.0000000 bulk dielectric constant

 Exchange correlation treatment:
   GGA     =    --    GGA type
   LEXCH   =     8    internal setting for exchange type
   VOSKOWN=      0    Vosko Wilk Nusair interpolation
   LHFCALC =     F    Hartree Fock is set to
   LHFONE  =     F    Hartree Fock one center treatment
   AEXX    =    0.0000 exact exchange contribution

 Linear response parameters
   LEPSILON=     F    determine dielectric tensor
   LRPA    =     F    only Hartree local field effects (RPA)
   LNABLA  =     F    use nabla operator in PAW spheres
   LVEL    =     F    velocity operator in full k-point grid
   LINTERFAST=   F  fast interpolation
   KINTER  =     0    interpolate to denser k-point grid
   CSHIFT  =0.1000    complex shift for real part using Kramers Kronig
   OMEGAMAX=  -1.0    maximum frequency
   DEG_THRESHOLD= 0.2000000E-02 threshold for treating states as degnerate
   RTIME   =    0.100 relaxation time in fs

 Orbital magnetization related:
   ORBITALMAG=     F  switch on orbital magnetization
   LCHIMAG   =     F  perturbation theory with respect to B field
   DQ        =  0.001000  dq finite difference perturbation B field



--------------------------------------------------------------------------------------------------------


 finite differences
   using selective dynamics as specified on POSCAR
   WARNING: If single coordinates had been selected the selection of coordinates
            is made according to the corresponding   d i r e c t   coordinates!
            Don't support selection of single cartesian coordinates -- sorry ...
  !
 charge density and potential will be updated during run
 non-spin polarized calculation
 Variant of blocked Davidson
 Davidson routine will perform the subspace rotation
 perform sub-space diagonalisation
    after iterative eigenvector-optimisation
 modified Broyden-mixing scheme, WC =      100.0
 initial mixing is a Kerker type mixing with AMIX =  0.4000 and BMIX =      1.0000
 Hartree-type preconditioning will be used
 using additional bands            5
 reciprocal scheme for non local part
 use partial core corrections
 calculate Harris-corrections to forces 
   (improved forces if not selfconsistent)
 use gradient corrections 
 use of overlap-Matrix (Vanderbilt PP)
 Gauss-broadening in eV      SIGMA  =   0.20


--------------------------------------------------------------------------------------------------------


  energy-cutoff  :      700.00
  volume of cell :      512.00
      direct lattice vectors                 reciprocal lattice vectors
     8.000000000  0.000000000  0.000000000     0.125000000  0.000000000  0.000000000
     0.000000000  8.000000000  0.000000000     0.000000000  0.125000000  0.000000000
     0.000000000  0.000000000  8.000000000     0.000000000  0.000000000  0.125000000

  length of vectors
     8.000000000  8.000000000  8.000000000     0.125000000  0.125000000  0.125000000


 
 k-points in units of 2pi/SCALE and weight: Gamma-point only                        
   0.00000000  0.00000000  0.00000000       1.000
 
 k-points in reciprocal lattice and weights: Gamma-point only                        
   0.00000000  0.00000000  0.00000000       1.000
 
 position of ions in fractional coordinates (direct lattice) 
   0.00000000  0.00000000  0.00000000
   0.00000000  0.00000000  0.14287500
 
 position of ions in cartesian coordinates  (Angst):
   0.00000000  0.00000000  0.00000000
   0.00000000  0.00000000  1.14300000
 


--------------------------------------------------------------------------------------------------------


 use seriel FFT for wavefunctions x direction half grid
 k-point  1 :   0.0000 0.0000 0.0000  plane waves:   10780

 maximum and minimum number of plane-waves per node :     10780    10780

 maximum number of plane-waves:     10780
 maximum index in each direction: 
   IXMAX=   17   IYMAX=   17   IZMAX=   17
   IXMIN=    0   IYMIN=  -17   IZMIN=  -17

 WARNING: aliasing errors must be expected set NGX to  70 to avoid them
 WARNING: aliasing errors must be expected set NGY to  70 to avoid them
 WARNING: aliasing errors must be expected set NGZ to  70 to avoid them
 aliasing errors are usually negligible using standard VASP settings
 and one can safely disregard these warnings

 serial   3D FFT for wavefunctions
 parallel 3D FFT for charge:
    minimum data exchange during FFTs selected (reduces bandwidth)


 total amount of memory used by VASP on root node    96832. kBytes
========================================================================

   base      :      30000. kBytes
   nonl-proj :       1724. kBytes
   fftplans  :      22159. kBytes
   grid      :      42083. kBytes
   one-center:          3. kBytes
   wavefun   :        863. kBytes
 
     INWAV:  cpu time    0.0000: real time    0.0000
 Broyden mixing: mesh for mixing (old mesh)
   NGX = 35   NGY = 35   NGZ = 35
  (NGX  =108   NGY  =108   NGZ  =108)
  gives a total of  42875 points

 initial charge density was supplied:
 charge density of overlapping atoms calculated
 number of electron      10.0000000 magnetization 
 keeping initial charge density in first step


--------------------------------------------------------------------------------------------------------


 Maximum index for augmentation-charges         1066 (set IRDMAX)


--------------------------------------------------------------------------------------------------------


 First call to EWALD:  gamma=   0.222
 Maximum number of real-space cells 3x 3x 3
 Maximum number of reciprocal cells 3x 3x 3

 FEWALD executed in parallel
    FEWALD:  cpu time    0.0902: real time    0.0033


----------------------------------------- Iteration    1(   1)  ---------------------------------------


    POTLOK:  cpu time    5.3067: real time    0.5139
    SETDIJ:  cpu time    0.0025: real time    0.0026
     EDDAV:  cpu time    8.7186: real time    0.3202
       DOS:  cpu time    0.0219: real time    0.0008
    --------------------------------------------
      LOOP:  cpu time   14.0879: real time    0.8389

 eigenvalue-minimisations  :    20
 total energy-change (2. order) : 0.8985916E+02  (-0.2997241E+03)
 number of electron      10.0000000 magnetization 
 augmentation part       10.0000000 magnetization 

 Free energy of the ion-electron system (eV)
  ---------------------------------------------------
  alpha Z        PSCENC =         0.57153965
  Ewald energy   TEWEN  =        48.90784304
  -Hartree energ DENC   =      -511.30202052
  -exchange      EXHF   =         0.00000000
  -V(xc)+E(xc)   XCENC  =        31.57058753
  PAW double counting   =       461.48086075     -457.43960020
  entropy T*S    EENTRO =        -0.00100877
  eigenvalues    EBANDS =       -63.24982116
  atomic energy  EATOM  =       579.32078282
  Solvation  Ediel_sol  =         0.00000000
  ---------------------------------------------------
  free energy    TOTEN  =        89.85916314 eV

  energy without entropy =       89.86017190  energy(sigma->0) =       89.85966752


--------------------------------------------------------------------------------------------------------




----------------------------------------- Iteration    1(   2)  ---------------------------------------


     EDDAV:  cpu time    5.9729: real time    0.2011
       DOS:  cpu time    0.0032: real time    0.0001
    --------------------------------------------
      LOOP:  cpu time    6.0167: real time    0.2026

 eigenvalue-minimisations  :    36
 total energy-change (2. order) :-0.7266388E+02  (-0.7179608E+02)
 number of electron      10.0000000 magnetization 
 augmentation part       10.0000000 magnetization 

 Free energy of the ion-electron system (eV)
  ---------------------------------------------------
  alpha Z        PSCENC =         0.57153965
  Ewald energy   TEWEN  =        48.90784304
  -Hartree energ DENC   =      -511.30202052
  -exchange      EXHF   =         0.00000000
  -V(xc)+E(xc)   XCENC  =        31.57058753
  PAW double counting   =       461.48086075     -457.43960020
  entropy T*S    EENTRO =        -0.00000000
  eigenvalues    EBANDS =      -135.91470676
  atomic energy  EATOM  =       579.32078282
  Solvation  Ediel_sol  =         0.00000000
  ---------------------------------------------------
  free energy    TOTEN  =        17.19528631 eV

  energy without entropy =       17.19528631  energy(sigma->0) =       17.19528631


--------------------------------------------------------------------------------------------------------




----------------------------------------- Iteration    1(   3)  ---------------------------------------


     EDDAV:  cpu time    5.0744: real time    0.1661
       DOS:  cpu time    0.0031: real time    0.0001
    --------------------------------------------
      LOOP:  cpu time    5.1115: real time    0.1673

 eigenvalue-minimisations  :    32
 total energy-change (2. order) :-0.3045615E+02  (-0.3044288E+02)
 number of electron      10.0000000 magnetization 
 augmentation part       10.0000000 magnetization 

 Free energy of the ion-electron system (eV)
  ---------------------------------------------------
  alpha Z        PSCENC =         0.57153965
  Ewald energy   TEWEN  =        48.90784304
  -Hartree energ DENC   =      -511.30202052
  -exchange      EXHF   =         0.00000000
  -V(xc)+E(xc)   XCENC  =        31.57058753
  PAW double counting   =       461.48086075     -457.43960020
  entropy T*S    EENTRO =        -0.00000000
  eigenvalues    EBANDS =      -166.37086102
  atomic energy  EATOM  =       579.32078282
  Solvation  Ediel_sol  =         0.00000000
  ---------------------------------------------------
  free energy    TOTEN  =       -13.26086795 eV

  energy without entropy =      -13.26086795  energy(sigma->0) =      -13.26086795


--------------------------------------------------------------------------------------------------------




----------------------------------------- Iteration    1(   4)  ---------------------------------------


     EDDAV:  cpu time    5.8572: real time    0.1916
       DOS:  cpu time    0.0031: real time    0.0001
    --------------------------------------------
      LOOP:  cpu time    5.8967: real time    0.1929

 eigenvalue-minimisations  :    32
 total energy-change (2. order) :-0.2472622E+01  (-0.2472495E+01)
 number of electron      10.0000000 magnetization 
 augmentation part       10.0000000 magnetization 

 Free energy of the ion-electron system (eV)
  ---------------------------------------------------
  alpha Z        PSCENC =         0.57153965
  Ewald energy   TEWEN  =        48.90784304
  -Hartree energ DENC   =      -511.30202052
  -exchange      EXHF   =         0.00000000
  -V(xc)+E(xc)   XCENC  =        31.57058753
  PAW double counting   =       461.48086075     -457.43960020
  entropy T*S    EENTRO =        -0.00000000
  eigenvalues    EBANDS =      -168.84348344
  atomic energy  EATOM  =       579.32078282
  Solvation  Ediel_sol  =         0.00000000
  ---------------------------------------------------
  free energy    TOTEN  =       -15.73349038 eV

  energy without entropy =      -15.73349038  energy(sigma->0) =      -15.73349038


--------------------------------------------------------------------------------------------------------




----------------------------------------- Iteration    1(   5)  ---------------------------------------


     EDDAV:  cpu time    6.2014: real time    0.2056
       DOS:  cpu time    0.0032: real time    0.0001
    CHARGE:  cpu time    1.5661: real time    0.0523
    MIXING:  cpu time    0.3180: real time    0.0108
    --------------------------------------------
      LOOP:  cpu time    8.1323: real time    0.2703

 eigenvalue-minimisations  :    30
 total energy-change (2. order) :-0.7595472E-02  (-0.7595200E-02)
 number of electron      10.0000003 magnetization 
 augmentation part        0.0099208 magnetization 

 Broyden mixing:
  rms(total) = 0.29667E+01    rms(broyden)= 0.29667E+01
  rms(prec ) = 0.30186E+01
  weight for this iteration     100.00

 Free energy of the ion-electron system (eV)
  ---------------------------------------------------
  alpha Z        PSCENC =         0.57153965
  Ewald energy   TEWEN  =        48.90784304
  -Hartree energ DENC   =      -511.30202052
  -exchange      EXHF   =         0.00000000
  -V(xc)+E(xc)   XCENC  =        31.57058753
  PAW double counting   =       461.48086075     -457.43960020
  entropy T*S    EENTRO =        -0.00000000
  eigenvalues    EBANDS =      -168.85107891
  atomic energy  EATOM  =       579.32078282
  Solvation  Ediel_sol  =         0.00000000
  ---------------------------------------------------
  free energy    TOTEN  =       -15.74108585 eV

  energy without entropy =      -15.74108585  energy(sigma->0) =      -15.74108585


--------------------------------------------------------------------------------------------------------




----------------------------------------- Iteration    1(   6)  ---------------------------------------


    POTLOK:  cpu time    3.9285: real time    0.3359
    SETDIJ:  cpu time    0.0090: real time    0.0090
     EDDAV:  cpu time    8.7401: real time    0.3322
       DOS:  cpu time    0.0012: real time    0.0001
    CHARGE:  cpu time    0.8786: real time    0.0800
    MIXING:  cpu time    0.2114: real time    0.0193
    --------------------------------------------
      LOOP:  cpu time   13.8024: real time    0.7781

 eigenvalue-minimisations  :    20
 total energy-change (2. order) : 0.6441186E+00  (-0.3276214E+00)
 number of electron      10.0000002 magnetization 
 augmentation part       -0.0153139 magnetization 

 Broyden mixing:
  rms(total) = 0.19998E+01    rms(broyden)= 0.19997E+01
  rms(prec ) = 0.20170E+01
  weight for this iteration     100.00

 eigenvalues of (default mixing * dielectric matrix)
  average eigenvalue GAMMA=   2.4011
  2.4011

 Free energy of the ion-electron system (eV)
  ---------------------------------------------------
  alpha Z        PSCENC =         0.57153965
  Ewald energy   TEWEN  =        48.90784304
  -Hartree energ DENC   =      -525.27590665
  -exchange      EXHF   =         0.00000000
  -V(xc)+E(xc)   XCENC  =        32.36519363
  PAW double counting   =      2230.92160330    -2227.07660107
  entropy T*S    EENTRO =        -0.00000000
  eigenvalues    EBANDS =      -154.83142196
  atomic energy  EATOM  =       579.32078282
  Solvation  Ediel_sol  =         0.00000000
  ---------------------------------------------------
  free energy    TOTEN  =       -15.09696723 eV

  energy without entropy =      -15.09696723  energy(sigma->0) =      -15.09696723


--------------------------------------------------------------------------------------------------------




----------------------------------------- Iteration    1(   7)  ---------------------------------------


    POTLOK:  cpu time    1.3800: real time    0.3490
    SETDIJ:  cpu time    0.0022: real time    0.0022
     EDDAV:  cpu time    3.9194: real time    0.1551
       DOS:  cpu time    0.0029: real time    0.0001
    CHARGE:  cpu time    1.1051: real time    0.0384
    MIXING:  cpu time    0.3569: real time    0.0123
    --------------------------------------------
      LOOP:  cpu time    6.7969: real time    0.5589

 eigenvalue-minimisations  :    30
 total energy-change (2. order) : 0.5472547E-01  (-0.2670570E+00)
 number of electron      10.0000002 magnetization 
 augmentation part        0.0026172 magnetization 

 Broyden mixing:
  rms(total) = 0.26843E+00    rms(broyden)= 0.26836E+00
  rms(prec ) = 0.37627E+00
  weight for this iteration     100.00

 eigenvalues of (default mixing * dielectric matrix)
  average eigenvalue GAMMA=   1.5554
  0.8124  2.2983

 Free energy of the ion-electron system (eV)
  ---------------------------------------------------
  alpha Z        PSCENC =         0.57153965
  Ewald energy   TEWEN  =        48.90784304
  -Hartree energ DENC   =      -529.73356504
  -exchange      EXHF   =         0.00000000
  -V(xc)+E(xc)   XCENC  =        32.67563809
  PAW double counting   =      7384.03333015    -7380.19785854
  entropy T*S    EENTRO =        -0.00000000
  eigenvalues    EBANDS =      -150.61995193
  atomic energy  EATOM  =       579.32078282
  Solvation  Ediel_sol  =         0.00000000
  ---------------------------------------------------
  free energy    TOTEN  =       -15.04224176 eV

  energy without entropy =      -15.04224176  energy(sigma->0) =      -15.04224176


--------------------------------------------------------------------------------------------------------




----------------------------------------- Iteration    1(   8)  ---------------------------------------


    POTLOK:  cpu time    4.0746: real time    0.3494
    SETDIJ:  cpu time    0.0021: real time    0.0021
     EDDAV:  cpu time    3.0784: real time    0.1254
       DOS:  cpu time    0.0029: real time    0.0001
    CHARGE:  cpu time    1.1767: real time    0.0409
    MIXING:  cpu time    0.4453: real time    0.0155
    --------------------------------------------
      LOOP:  cpu time    8.8260: real time    0.5349

 eigenvalue-minimisations  :    24
 total energy-change (2. order) : 0.1217678E+00  (-0.8364508E-01)
 number of electron      10.0000002 magnetization 
 augmentation part       -0.0104503 magnetization 

 Broyden mixing:
  rms(total) = 0.23017E+00    rms(broyden)= 0.23012E+00
  rms(prec ) = 0.23358E+00
  weight for this iteration     100.00

 eigenvalues of (default mixing * dielectric matrix)
  average eigenvalue GAMMA=   1.3833
  2.6131  0.8086  0.7280

 Free energy of the ion-electron system (eV)
  ---------------------------------------------------
  alpha Z        PSCENC =         0.57153965
  Ewald energy   TEWEN  =        48.90784304
  -Hartree energ DENC   =      -532.56541787
  -exchange      EXHF   =         0.00000000
  -V(xc)+E(xc)   XCENC  =        32.83113921
  PAW double counting   =      7986.54360487    -7982.74373561
  entropy T*S    EENTRO =        -0.00000000
  eigenvalues    EBANDS =      -147.78623009
  atomic energy  EATOM  =       579.32078282
  Solvation  Ediel_sol  =         0.00000000
  ---------------------------------------------------
  free energy    TOTEN  =       -14.92047397 eV

  energy without entropy =      -14.92047397  energy(sigma->0) =      -14.92047397


--------------------------------------------------------------------------------------------------------




----------------------------------------- Iteration    1(   9)  ---------------------------------------


    POTLOK:  cpu time    3.9755: real time    0.3396
    SETDIJ:  cpu time    0.0035: real time    0.0035
     EDDAV:  cpu time    5.3717: real time    0.1972
       DOS:  cpu time    0.0033: real time    0.0001
    CHARGE:  cpu time    1.2891: real time    0.0433
    MIXING:  cpu time    0.4133: real time    0.0140
    --------------------------------------------
      LOOP:  cpu time   11.1034: real time    0.5993

 eigenvalue-minimisations  :    28
 total energy-change (2. order) :-0.2455329E-02  (-0.3169059E-02)
 number of electron      10.0000002 magnetization 
 augmentation part       -0.0109100 magnetization 

 Broyden mixing:
  rms(total) = 0.36499E-01    rms(broyden)= 0.36473E-01
  rms(prec ) = 0.46398E-01
  weight for this iteration     100.00

 eigenvalues of (default mixing * dielectric matrix)
  average eigenvalue GAMMA=   1.3286
  2.4518  1.1817  0.8405  0.8405

 Free energy of the ion-electron system (eV)
  ---------------------------------------------------
  alpha Z        PSCENC =         0.57153965
  Ewald energy   TEWEN  =        48.90784304
  -Hartree energ DENC   =      -532.57967873
  -exchange      EXHF   =         0.00000000
  -V(xc)+E(xc)   XCENC  =        32.83599558
  PAW double counting   =      8756.30258387    -8752.49202865
  entropy T*S    EENTRO =        -0.00000000
  eigenvalues    EBANDS =      -147.78996689
  atomic energy  EATOM  =       579.32078282
  Solvation  Ediel_sol  =         0.00000000
  ---------------------------------------------------
  free energy    TOTEN  =       -14.92292930 eV

  energy without entropy =      -14.92292930  energy(sigma->0) =      -14.92292930


--------------------------------------------------------------------------------------------------------




----------------------------------------- Iteration    1(  10)  ---------------------------------------


    POTLOK:  cpu time    3.9550: real time    0.3138
    SETDIJ:  cpu time    0.0016: real time    0.0016
     EDDAV:  cpu time    4.4860: real time    0.1697
       DOS:  cpu time    0.0028: real time    0.0001
    CHARGE:  cpu time    1.2444: real time    0.0417
    MIXING:  cpu time    0.4522: real time    0.0150
    --------------------------------------------
      LOOP:  cpu time   10.1873: real time    0.5434

 eigenvalue-minimisations  :    24
 total energy-change (2. order) : 0.2807480E-03  (-0.7759786E-03)
 number of electron      10.0000002 magnetization 
 augmentation part       -0.0099808 magnetization 

 Broyden mixing:
  rms(total) = 0.43438E-01    rms(broyden)= 0.43436E-01
  rms(prec ) = 0.45173E-01
  weight for this iteration     100.00

 eigenvalues of (default mixing * dielectric matrix)
  average eigenvalue GAMMA=   1.5295
  2.2767  2.2767  1.6115  0.7414  0.7414

 Free energy of the ion-electron system (eV)
  ---------------------------------------------------
  alpha Z        PSCENC =         0.57153965
  Ewald energy   TEWEN  =        48.90784304
  -Hartree energ DENC   =      -531.75437302
  -exchange      EXHF   =         0.00000000
  -V(xc)+E(xc)   XCENC  =        32.78355789
  PAW double counting   =      8506.44220996    -8502.61807092
  entropy T*S    EENTRO =        -0.00000000
  eigenvalues    EBANDS =      -148.57613797
  atomic energy  EATOM  =       579.32078282
  Solvation  Ediel_sol  =         0.00000000
  ---------------------------------------------------
  free energy    TOTEN  =       -14.92264855 eV

  energy without entropy =      -14.92264855  energy(sigma->0) =      -14.92264855


--------------------------------------------------------------------------------------------------------




----------------------------------------- Iteration    1(  11)  ---------------------------------------


    POTLOK:  cpu time    3.9715: real time    0.3054
    SETDIJ:  cpu time    0.0016: real time    0.0016
     EDDAV:  cpu time    4.0641: real time    0.1495
       DOS:  cpu time    0.0031: real time    0.0001
    CHARGE:  cpu time    1.2709: real time    0.0416
    MIXING:  cpu time    0.4316: real time    0.0140
    --------------------------------------------
      LOOP:  cpu time    9.7886: real time    0.5137

 eigenvalue-minimisations  :    22
 total energy-change (2. order) :-0.1578813E-02  (-0.5877038E-04)
 number of electron      10.0000002 magnetization 
 augmentation part       -0.0099212 magnetization 

 Broyden mixing:
  rms(total) = 0.85323E-02    rms(broyden)= 0.85317E-02
  rms(prec ) = 0.11350E-01
  weight for this iteration     100.00

 eigenvalues of (default mixing * dielectric matrix)
  average eigenvalue GAMMA=   1.4141
  2.2684  2.2684  1.5551  0.7718  0.7718  0.8489

 Free energy of the ion-electron system (eV)
  ---------------------------------------------------
  alpha Z        PSCENC =         0.57153965
  Ewald energy   TEWEN  =        48.90784304
  -Hartree energ DENC   =      -531.87262623
  -exchange      EXHF   =         0.00000000
  -V(xc)+E(xc)   XCENC  =        32.78478587
  PAW double counting   =      8542.02303719    -8538.19716358
  entropy T*S    EENTRO =        -0.00000000
  eigenvalues    EBANDS =      -148.46242613
  atomic energy  EATOM  =       579.32078282
  Solvation  Ediel_sol  =         0.00000000
  ---------------------------------------------------
  free energy    TOTEN  =       -14.92422737 eV

  energy without entropy =      -14.92422737  energy(sigma->0) =      -14.92422737


--------------------------------------------------------------------------------------------------------




----------------------------------------- Iteration    1(  12)  ---------------------------------------


    POTLOK:  cpu time    3.9934: real time    0.3158
    SETDIJ:  cpu time    0.0016: real time    0.0016
     EDDAV:  cpu time    3.1594: real time    0.1250
       DOS:  cpu time    0.0031: real time    0.0001
    CHARGE:  cpu time    1.2553: real time    0.0425
    MIXING:  cpu time    0.4943: real time    0.0166
    --------------------------------------------
      LOOP:  cpu time    9.1901: real time    0.5109

 eigenvalue-minimisations  :    24
 total energy-change (2. order) :-0.5063807E-03  (-0.1975251E-04)
 number of electron      10.0000002 magnetization 
 augmentation part       -0.0101038 magnetization 

 Broyden mixing:
  rms(total) = 0.56260E-02    rms(broyden)= 0.56250E-02
  rms(prec ) = 0.77859E-02
  weight for this iteration     100.00

 eigenvalues of (default mixing * dielectric matrix)
  average eigenvalue GAMMA=   1.4990
  2.5338  2.3662  1.5375  1.5375  0.7553  0.7553  1.0078

 Free energy of the ion-electron system (eV)
  ---------------------------------------------------
  alpha Z        PSCENC =         0.57153965
  Ewald energy   TEWEN  =        48.90784304
  -Hartree energ DENC   =      -531.93258168
  -exchange      EXHF   =         0.00000000
  -V(xc)+E(xc)   XCENC  =        32.78697923
  PAW double counting   =      8522.48791593    -8518.66241555
  entropy T*S    EENTRO =        -0.00000000
  eigenvalues    EBANDS =      -148.40479718
  atomic energy  EATOM  =       579.32078282
  Solvation  Ediel_sol  =         0.00000000
  ---------------------------------------------------
  free energy    TOTEN  =       -14.92473375 eV

  energy without entropy =      -14.92473375  energy(sigma->0) =      -14.92473375


--------------------------------------------------------------------------------------------------------




----------------------------------------- Iteration    1(  13)  ---------------------------------------


    POTLOK:  cpu time    4.0034: real time    0.3034
    SETDIJ:  cpu time    0.0016: real time    0.0016
     EDDAV:  cpu time    4.2430: real time    0.1570
       DOS:  cpu time    0.0568: real time    0.0019
    CHARGE:  cpu time    1.7204: real time    0.0565
    MIXING:  cpu time    0.6503: real time    0.0214
    --------------------------------------------
      LOOP:  cpu time   10.7368: real time    0.5439

 eigenvalue-minimisations  :    20
 total energy-change (2. order) :-0.1356375E-02  (-0.1884273E-04)
 number of electron      10.0000002 magnetization 
 augmentation part       -0.0101743 magnetization 

 Broyden mixing:
  rms(total) = 0.48991E-02    rms(broyden)= 0.48987E-02
  rms(prec ) = 0.54706E-02
  weight for this iteration     100.00

 eigenvalues of (default mixing * dielectric matrix)
  average eigenvalue GAMMA=   1.5960
  3.3694  2.3760  1.7905  1.5903  1.2467  0.7566  0.7566  0.8823

 Free energy of the ion-electron system (eV)
  ---------------------------------------------------
  alpha Z        PSCENC =         0.57153965
  Ewald energy   TEWEN  =        48.90784304
  -Hartree energ DENC   =      -532.08518607
  -exchange      EXHF   =         0.00000000
  -V(xc)+E(xc)   XCENC  =        32.79227538
  PAW double counting   =      8563.32851416    -8559.50242168
  entropy T*S    EENTRO =        -0.00000000
  eigenvalues    EBANDS =      -148.25943742
  atomic energy  EATOM  =       579.32078282
  Solvation  Ediel_sol  =         0.00000000
  ---------------------------------------------------
  free energy    TOTEN  =       -14.92609012 eV

  energy without entropy =      -14.92609012  energy(sigma->0) =      -14.92609012


--------------------------------------------------------------------------------------------------------




----------------------------------------- Iteration    1(  14)  ---------------------------------------


    POTLOK:  cpu time    3.5346: real time    0.3239
    SETDIJ:  cpu time    0.0018: real time    0.0018
     EDDAV:  cpu time    5.2344: real time    0.1853
       DOS:  cpu time    0.0034: real time    0.0001
    CHARGE:  cpu time    1.2649: real time    0.0400
    MIXING:  cpu time    0.5580: real time    0.0177
    --------------------------------------------
      LOOP:  cpu time   10.6475: real time    0.5704

 eigenvalue-minimisations  :    24
 total energy-change (2. order) :-0.5205922E-03  (-0.5962692E-05)
 number of electron      10.0000002 magnetization 
 augmentation part       -0.0101436 magnetization 

 Broyden mixing:
  rms(total) = 0.30548E-02    rms(broyden)= 0.30548E-02
  rms(prec ) = 0.32573E-02
  weight for this iteration     100.00

 eigenvalues of (default mixing * dielectric matrix)
  average eigenvalue GAMMA=   1.7499
  3.2243  2.6312  2.6312  2.2486  1.5149  0.7558  0.7558  1.0862  0.9010

 Free energy of the ion-electron system (eV)
  ---------------------------------------------------
  alpha Z        PSCENC =         0.57153965
  Ewald energy   TEWEN  =        48.90784304
  -Hartree energ DENC   =      -532.12182624
  -exchange      EXHF   =         0.00000000
  -V(xc)+E(xc)   XCENC  =        32.79274692
  PAW double counting   =      8549.57999727    -8545.75388184
  entropy T*S    EENTRO =        -0.00000000
  eigenvalues    EBANDS =      -148.22381234
  atomic energy  EATOM  =       579.32078282
  Solvation  Ediel_sol  =         0.00000000
  ---------------------------------------------------
  free energy    TOTEN  =       -14.92661072 eV

  energy without entropy =      -14.92661072  energy(sigma->0) =      -14.92661072


--------------------------------------------------------------------------------------------------------




----------------------------------------- Iteration    1(  15)  ---------------------------------------


    POTLOK:  cpu time    4.2581: real time    0.3042
    SETDIJ:  cpu time    0.0016: real time    0.0016
     EDDAV:  cpu time    4.8584: real time    0.1762
       DOS:  cpu time    0.0031: real time    0.0001
    CHARGE:  cpu time    1.2083: real time    0.0398
    MIXING:  cpu time    0.5681: real time    0.0185
    --------------------------------------------
      LOOP:  cpu time   10.9468: real time    0.5421

 eigenvalue-minimisations  :    24
 total energy-change (2. order) :-0.3505239E-03  (-0.4443290E-05)
 number of electron      10.0000002 magnetization 
 augmentation part       -0.0101263 magnetization 

 Broyden mixing:
  rms(total) = 0.94685E-03    rms(broyden)= 0.94678E-03
  rms(prec ) = 0.10039E-02
  weight for this iteration     100.00

 eigenvalues of (default mixing * dielectric matrix)
  average eigenvalue GAMMA=   1.7872
  5.1575  2.3879  2.3879  2.1239  1.5298  1.0115  1.0115  0.7569  0.7569  0.7478

 Free energy of the ion-electron system (eV)
  ---------------------------------------------------
  alpha Z        PSCENC =         0.57153965
  Ewald energy   TEWEN  =        48.90784304
  -Hartree energ DENC   =      -532.12467064
  -exchange      EXHF   =         0.00000000
  -V(xc)+E(xc)   XCENC  =        32.79209485
  PAW double counting   =      8545.91215973    -8542.08613194
  entropy T*S    EENTRO =        -0.00000000
  eigenvalues    EBANDS =      -148.22057876
  atomic energy  EATOM  =       579.32078282
  Solvation  Ediel_sol  =         0.00000000
  ---------------------------------------------------
  free energy    TOTEN  =       -14.92696124 eV

  energy without entropy =      -14.92696124  energy(sigma->0) =      -14.92696124


--------------------------------------------------------------------------------------------------------




----------------------------------------- Iteration    1(  16)  ---------------------------------------


    POTLOK:  cpu time    4.0256: real time    0.3031
    SETDIJ:  cpu time    0.0016: real time    0.0015
     EDDAV:  cpu time    6.4515: real time    0.2328
       DOS:  cpu time    0.0037: real time    0.0001
    CHARGE:  cpu time    2.3736: real time    0.0779
    MIXING:  cpu time    0.8423: real time    0.0280
    --------------------------------------------
      LOOP:  cpu time   13.7493: real time    0.6451

 eigenvalue-minimisations  :    22
 total energy-change (2. order) :-0.2322392E-04  (-0.8505065E-07)
 number of electron      10.0000002 magnetization 
 augmentation part       -0.0101246 magnetization 

 Broyden mixing:
  rms(total) = 0.55461E-03    rms(broyden)= 0.55459E-03
  rms(prec ) = 0.61360E-03
  weight for this iteration     100.00

 eigenvalues of (default mixing * dielectric matrix)
  average eigenvalue GAMMA=   1.8537
  5.5914  2.7265  2.0927  2.0405  2.0405  1.5828  0.7557  0.7557  1.0090  1.0090
  0.7870

 Free energy of the ion-electron system (eV)
  ---------------------------------------------------
  alpha Z        PSCENC =         0.57153965
  Ewald energy   TEWEN  =        48.90784304
  -Hartree energ DENC   =      -532.12360226
  -exchange      EXHF   =         0.00000000
  -V(xc)+E(xc)   XCENC  =        32.79198265
  PAW double counting   =      8544.84051282    -8541.01446198
  entropy T*S    EENTRO =        -0.00000000
  eigenvalues    EBANDS =      -148.22158119
  atomic energy  EATOM  =       579.32078282
  Solvation  Ediel_sol  =         0.00000000
  ---------------------------------------------------
  free energy    TOTEN  =       -14.92698446 eV

  energy without entropy =      -14.92698446  energy(sigma->0) =      -14.92698446


--------------------------------------------------------------------------------------------------------




----------------------------------------- Iteration    1(  17)  ---------------------------------------


    POTLOK:  cpu time    5.5648: real time    0.3089
    SETDIJ:  cpu time    0.0016: real time    0.0016
     EDDAV:  cpu time    3.4023: real time    0.1350
       DOS:  cpu time    0.0031: real time    0.0001
    CHARGE:  cpu time    1.1510: real time    0.0382
    MIXING:  cpu time    0.6039: real time    0.0200
    --------------------------------------------
      LOOP:  cpu time   10.7756: real time    0.5054

 eigenvalue-minimisations  :    20
 total energy-change (2. order) :-0.4945717E-04  (-0.2785301E-06)
 number of electron      10.0000002 magnetization 
 augmentation part       -0.0101244 magnetization 

 Broyden mixing:
  rms(total) = 0.55586E-03    rms(broyden)= 0.55585E-03
  rms(prec ) = 0.56717E-03
  weight for this iteration     100.00

 eigenvalues of (default mixing * dielectric matrix)
  average eigenvalue GAMMA=   1.9747
  6.4110  3.5145  2.4672  2.2017  2.2017  1.5248  1.0385  1.0385  0.9918  0.7559
  0.7559  0.7946

 Free energy of the ion-electron system (eV)
  ---------------------------------------------------
  alpha Z        PSCENC =         0.57153965
  Ewald energy   TEWEN  =        48.90784304
  -Hartree energ DENC   =      -532.11545283
  -exchange      EXHF   =         0.00000000
  -V(xc)+E(xc)   XCENC  =        32.79154962
  PAW double counting   =      8541.88753010    -8538.06146521
  entropy T*S    EENTRO =        -0.00000000
  eigenvalues    EBANDS =      -148.22936112
  atomic energy  EATOM  =       579.32078282
  Solvation  Ediel_sol  =         0.00000000
  ---------------------------------------------------
  free energy    TOTEN  =       -14.92703392 eV

  energy without entropy =      -14.92703392  energy(sigma->0) =      -14.92703392


--------------------------------------------------------------------------------------------------------




----------------------------------------- Iteration    1(  18)  ---------------------------------------


    POTLOK:  cpu time    5.6861: real time    0.3158
    SETDIJ:  cpu time    0.0031: real time    0.0031
     EDDAV:  cpu time    5.3314: real time    0.1875
       DOS:  cpu time    0.0029: real time    0.0001
    CHARGE:  cpu time    1.5680: real time    0.0502
    MIXING:  cpu time    0.7689: real time    0.0246
    --------------------------------------------
      LOOP:  cpu time   13.4096: real time    0.5830

 eigenvalue-minimisations  :    24
 total energy-change (2. order) :-0.1369904E-04  (-0.8528621E-07)
 number of electron      10.0000002 magnetization 
 augmentation part       -0.0101254 magnetization 

 Broyden mixing:
  rms(total) = 0.17508E-03    rms(broyden)= 0.17508E-03
  rms(prec ) = 0.18018E-03
  weight for this iteration     100.00

 eigenvalues of (default mixing * dielectric matrix)
  average eigenvalue GAMMA=   1.9912
  6.4950  3.5163  2.5052  2.3615  2.0327  2.0327  1.5691  0.7559  0.7559  1.0196
  1.0196  1.0156  0.8069

 Free energy of the ion-electron system (eV)
  ---------------------------------------------------
  alpha Z        PSCENC =         0.57153965
  Ewald energy   TEWEN  =        48.90784304
  -Hartree energ DENC   =      -532.11387261
  -exchange      EXHF   =         0.00000000
  -V(xc)+E(xc)   XCENC  =        32.79150159
  PAW double counting   =      8543.09983615    -8539.27379426
  entropy T*S    EENTRO =        -0.00000000
  eigenvalues    EBANDS =      -148.23088400
  atomic energy  EATOM  =       579.32078282
  Solvation  Ediel_sol  =         0.00000000
  ---------------------------------------------------
  free energy    TOTEN  =       -14.92704762 eV

  energy without entropy =      -14.92704762  energy(sigma->0) =      -14.92704762


--------------------------------------------------------------------------------------------------------




----------------------------------------- Iteration    1(  19)  ---------------------------------------


    POTLOK:  cpu time    5.7974: real time    0.3145
    SETDIJ:  cpu time    0.0035: real time    0.0034
     EDDAV:  cpu time    2.6782: real time    0.1059
       DOS:  cpu time    0.0029: real time    0.0001
    CHARGE:  cpu time    1.1200: real time    0.0378
    MIXING:  cpu time    0.6362: real time    0.0214
    --------------------------------------------
      LOOP:  cpu time   10.2892: real time    0.4848

 eigenvalue-minimisations  :    20
 total energy-change (2. order) :-0.2444048E-05  (-0.1299031E-07)
 number of electron      10.0000002 magnetization 
 augmentation part       -0.0101248 magnetization 

 Broyden mixing:
  rms(total) = 0.58160E-04    rms(broyden)= 0.58159E-04
  rms(prec ) = 0.64923E-04
  weight for this iteration     100.00

 eigenvalues of (default mixing * dielectric matrix)
  average eigenvalue GAMMA=   1.9977
  6.4866  4.1022  2.6263  2.5098  2.1464  2.1464  1.5341  0.7558  0.7558  1.0868
  1.0868  0.9650  0.9650  0.8006

 Free energy of the ion-electron system (eV)
  ---------------------------------------------------
  alpha Z        PSCENC =         0.57153965
  Ewald energy   TEWEN  =        48.90784304
  -Hartree energ DENC   =      -532.11310672
  -exchange      EXHF   =         0.00000000
  -V(xc)+E(xc)   XCENC  =        32.79147688
  PAW double counting   =      8543.40782079    -8539.58178732
  entropy T*S    EENTRO =        -0.00000000
  eigenvalues    EBANDS =      -148.23161920
  atomic energy  EATOM  =       579.32078282
  Solvation  Ediel_sol  =         0.00000000
  ---------------------------------------------------
  free energy    TOTEN  =       -14.92705006 eV

  energy without entropy =      -14.92705006  energy(sigma->0) =      -14.92705006


--------------------------------------------------------------------------------------------------------




----------------------------------------- Iteration    1(  20)  ---------------------------------------


    POTLOK:  cpu time    5.5869: real time    0.3486
    SETDIJ:  cpu time    0.0016: real time    0.0016
     EDDAV:  cpu time    3.0550: real time    0.1171
       DOS:  cpu time    0.0447: real time    0.0015
    --------------------------------------------
      LOOP:  cpu time    8.7269: real time    0.4700

 eigenvalue-minimisations  :    22
 total energy-change (2. order) :-0.7566692E-06  (-0.5526097E-08)
 number of electron      10.0000002 magnetization 
 augmentation part       -0.0101248 magnetization 

 Free energy of the ion-electron system (eV)
  ---------------------------------------------------
  alpha Z        PSCENC =         0.57153965
  Ewald energy   TEWEN  =        48.90784304
  -Hartree energ DENC   =      -532.11229535
  -exchange      EXHF   =         0.00000000
  -V(xc)+E(xc)   XCENC  =        32.79145243
  PAW double counting   =      8543.41134644    -8539.58530930
  entropy T*S    EENTRO =        -0.00000000
  eigenvalues    EBANDS =      -148.23241056
  atomic energy  EATOM  =       579.32078282
  Solvation  Ediel_sol  =         0.00000000
  ---------------------------------------------------
  free energy    TOTEN  =       -14.92705082 eV

  energy without entropy =      -14.92705082  energy(sigma->0) =      -14.92705082


--------------------------------------------------------------------------------------------------------




 average (electrostatic) potential at core
  the test charge radii are     0.5770  0.5955
  (the norm of the test charge is              1.0000)
       1 -88.8566       2-122.2891
 
 
 
 E-fermi :  -7.7888     XC(G=0):  -1.1810     alpha+bet : -0.3665


 k-point     1 :       0.0000    0.0000    0.0000
  band No.  band energies     occupation 
      1     -28.8294      2.00000
      2     -13.7851      2.00000
      3     -11.3835      2.00000
      4     -11.3835      2.00000
      5      -8.7346      2.00000
      6      -1.7848      0.00000
      7      -1.7848      0.00000
      8      -0.2260      0.00000
      9       1.7288      0.00000
     10       1.9039      0.00000


--------------------------------------------------------------------------------------------------------


 soft charge-density along one line, spin component           1
         0         1         2         3         4         5         6         7         8         9
 total charge-density along one line
 
 pseudopotential strength for first ion, spin component:           1
 12.823  21.582  -0.000   0.049  -0.000  -0.000   0.087  -0.000
 21.582  36.321  -0.000   0.082  -0.000  -0.000   0.146  -0.000
 -0.000  -0.000  -3.223   0.000   0.000  -5.780   0.000   0.000
  0.049   0.082   0.000  -3.218   0.000   0.000  -5.773   0.000
 -0.000  -0.000   0.000   0.000  -3.223   0.000   0.000  -5.780
 -0.000  -0.000  -5.780   0.000   0.000 -10.344   0.000   0.000
  0.087   0.146   0.000  -5.773   0.000   0.000 -10.332   0.000
 -0.000  -0.000   0.000   0.000  -5.780   0.000   0.000 -10.344
 total augmentation occupancy for first ion, spin component:           1
  6.933  -2.445   0.000   6.427   0.000   0.000  -2.942  -0.000
 -2.445   1.107   0.000  -3.321  -0.000   0.000   1.401   0.000
  0.000  -0.000   3.175   0.000   0.000  -1.020  -0.000   0.000
  6.427  -3.321   0.000  12.367   0.000  -0.000  -4.753   0.000
  0.000   0.000   0.000   0.000   3.175   0.000   0.000  -1.020
  0.000   0.000  -1.020  -0.000   0.000   0.327   0.000   0.000
 -2.942   1.401  -0.000  -4.753  -0.000   0.000   1.901   0.000
  0.000   0.000   0.000   0.000  -1.020   0.000   0.000   0.327


------------------------ aborting loop because EDIFF is reached ----------------------------------------


    CHARGE:  cpu time    1.1700: real time    0.0391
    FORLOC:  cpu time    0.5726: real time    0.0192
    FORNL :  cpu time    0.2106: real time    0.0070
    STRESS:  cpu time    2.1049: real time    0.0705
    FORCOR:  cpu time    1.7182: real time    0.3438
    FORHAR:  cpu time    0.0822: real time    0.0822
    MIXING:  cpu time    0.1991: real time    0.0217
    OFIELD:  cpu time    0.0073: real time    0.0002

  FORCE on cell =-STRESS in cart. coord.  units (eV):
  Direction    XX          YY          ZZ          XY          YZ          ZX
  --------------------------------------------------------------------------------------
  Alpha Z     0.57154     0.57154     0.57154
  Ewald     -86.00472   -86.00472   220.91723    -0.00000     0.00000     0.00000
  Hartree   140.37439   140.37439   251.36344    -0.00000    -0.00000    -0.00000
  E(xc)     -45.83223   -45.83223   -45.04786    -0.00000    -0.00000    -0.00000
  Local    -254.63188  -254.63188  -653.89219    -0.00000     0.00000     0.00000
  n-local    -2.46927    -2.46927    -7.21037     0.00000     0.00000     0.00000
  augment     0.45310     0.45310     0.66639    -0.00000    -0.00000    -0.00000
  Kinetic   246.10601   246.10601   230.08466    -0.00000    -0.00000    -0.00000
  Fock        0.00000     0.00000     0.00000     0.00000     0.00000     0.00000
  -------------------------------------------------------------------------------------
  Total      -1.43306    -1.43306    -2.54715     0.00000     0.00000     0.00000
  in kB      -4.48442    -4.48442    -7.97068     0.00000     0.00000     0.00000
  external pressure =       -5.65 kB  Pullay stress =        0.00 kB


 VOLUME and BASIS-vectors are now :
 -----------------------------------------------------------------------------
  energy-cutoff  :      700.00
  volume of cell :      512.00
      direct lattice vectors                 reciprocal lattice vectors
     8.000000000  0.000000000  0.000000000     0.125000000  0.000000000  0.000000000
     0.000000000  8.000000000  0.000000000     0.000000000  0.125000000  0.000000000
     0.000000000  0.000000000  8.000000000     0.000000000  0.000000000  0.125000000

  length of vectors
     8.000000000  8.000000000  8.000000000     0.125000000  0.125000000  0.125000000


 FORCES acting on ions
    electron-ion (+dipol)            ewald-force                    non-local-force                 convergence-correction
 -----------------------------------------------------------------------------------------------
   0.340E-15 0.112E-13 0.235E+03   -.112E-15 -.589E-16 -.261E+03   0.000E+00 0.000E+00 0.270E+02   0.257E-14 0.935E-14 -.535E-04
   0.169E-16 0.203E-14 -.211E+03   0.149E-15 0.115E-15 0.261E+03   0.000E+00 0.000E+00 -.513E+02   -.210E-13 0.574E-14 -.340E-03
 -----------------------------------------------------------------------------------------------
   0.357E-15 0.133E-13 0.243E+02   0.369E-16 0.557E-16 0.000E+00   0.000E+00 0.000E+00 -.243E+02   -.184E-13 0.151E-13 -.394E-03
 
 
 POSITION                                       TOTAL-FORCE (eV/Angst)
 -----------------------------------------------------------------------------------
      0.00000      0.00000      0.00000         0.000000     -0.000000      0.868478
      0.00000      0.00000      1.14300         0.000000      0.000000     -0.868478
 -----------------------------------------------------------------------------------
    total drift:                               -0.000000      0.000000     -0.002061


--------------------------------------------------------------------------------------------------------



  FREE ENERGIE OF THE ION-ELECTRON SYSTEM (eV)
  ---------------------------------------------------
  free  energy   TOTEN  =       -14.92705082 eV

  energy  without entropy=      -14.92705082  energy(sigma->0) =      -14.92705082
 


--------------------------------------------------------------------------------------------------------


    POTLOK:  cpu time    5.5534: real time    0.3207


--------------------------------------------------------------------------------------------------------


 stress matrix after NEB project (eV)
     -1.43306      0.00000      0.00000
      0.00000     -1.43306      0.00000
      0.00000      0.00000     -2.54715
  FORCES: max atom, RMS     0.868478    0.868478
  FORCE total and by dimension    1.228213    0.868478
  Stress total and by dimension    3.255046    2.547152
 Finite differences:
   Step               POTIM =   2.000000000000000E-002
   Degrees of freedom DOF   =            2
  LATTYP: Found a simple cubic cell.
 ALAT       =     8.0000000000
  
  Lattice vectors:
  
 A1 = (   8.0000000000,   0.0000000000,   0.0000000000)
 A2 = (   0.0000000000,   8.0000000000,   0.0000000000)
 A3 = (   0.0000000000,   0.0000000000,   8.0000000000)


Analysis of symmetry for initial positions (statically):
=====================================================================
 Subroutine PRICEL returns:
 Original cell was already a primitive cell.
 

 Routine SETGRP: Setting up the symmetry group for a 
 simple cubic supercell.


 Subroutine GETGRP returns: Found  8 space group operations
 (whereof  8 operations were pure point group operations)
 out of a pool of 48 trial point group operations.


The static configuration has the point symmetry C_4v.


Analysis of symmetry for dynamics (positions and initial velocities):
=====================================================================
 Subroutine PRICEL returns:
 Original cell was already a primitive cell.
 

 Routine SETGRP: Setting up the symmetry group for a 
 simple cubic supercell.


 Subroutine GETGRP returns: Found  8 space group operations
 (whereof  8 operations were pure point group operations)
 out of a pool of 48 trial point group operations.


The dynamic configuration has the point symmetry C_4v.


Analysis of constrained symmetry for selective dynamics:
=====================================================================
 Subroutine PRICEL returns:
 Original cell was already a primitive cell.
 

 Routine SETGRP: Setting up the symmetry group for a 
 simple cubic supercell.


 Subroutine GETGRP returns: Found  8 space group operations
 (whereof  8 operations were pure point group operations)
 out of a pool of 48 trial point group operations.


The constrained configuration has the point symmetry C_4v.


 Subroutine INISYM returns: Found  8 space group operations
 (whereof  8 operations are pure point group operations),
 and found     1 'primitive' translations

 
 KPOINTS: Gamma-point only                        

Automatic generation of k-mesh.
Space group operators:
 irot       det(A)        alpha          n_x          n_y          n_z        tau_x        tau_y        tau_z
    1     1.000000     0.000000     1.000000     0.000000     0.000000     0.000000     0.000000     0.000000
    2     1.000000    90.000000     0.000000     0.000000    -1.000000     0.000000     0.000000     0.000000
    3     1.000000   180.000000     0.000000     0.000000     1.000000     0.000000     0.000000     0.000000
    4     1.000000    90.000000     0.000000     0.000000     1.000000     0.000000     0.000000     0.000000
    5    -1.000000   180.000000     1.000000     0.000000     0.000000     0.000000     0.000000     0.000000
    6    -1.000000   180.000000     0.707107     0.707107     0.000000     0.000000     0.000000     0.000000
    7    -1.000000   180.000000     0.000000     1.000000     0.000000     0.000000     0.000000     0.000000
    8    -1.000000   180.000000     0.707107    -0.707107     0.000000     0.000000     0.000000     0.000000
 
 Subroutine IBZKPT returns following result:
 ===========================================
 
 Found      1 irreducible k-points:
 
 Following reciprocal coordinates:
            Coordinates               Weight
  0.000000  0.000000  0.000000      1.000000
 
 Following cartesian coordinates:
            Coordinates               Weight
  0.000000  0.000000  0.000000      1.000000
 
 use seriel FFT for wavefunctions x direction half grid
    WAVPRE:  cpu time    0.3576: real time    0.0894
 FEWALD executed in parallel
    FEWALD:  cpu time    0.0015: real time    0.0004
    ORTHCH:  cpu time    0.1178: real time    0.0061
     LOOP+:  cpu time  221.1002: real time   13.7573


----------------------------------------- Iteration    2(   1)  ---------------------------------------


    POTLOK:  cpu time    5.7242: real time    0.3854
    SETDIJ:  cpu time    0.0018: real time    0.0018
     EDDAV:  cpu time    4.3650: real time    0.1698
       DOS:  cpu time    0.0033: real time    0.0001
    CHARGE:  cpu time    2.3802: real time    0.0792
    MIXING:  cpu time    0.3023: real time    0.0100
    --------------------------------------------
      LOOP:  cpu time   12.8110: real time    0.6475

 eigenvalue-minimisations  :    20
 total energy-change (2. order) : 0.3202660E-02  (-0.1845648E+00)
 number of electron      10.0000002 magnetization 
 augmentation part       -0.0084935 magnetization 

 Broyden mixing:
  rms(total) = 0.24596E+00    rms(broyden)= 0.24594E+00
  rms(prec ) = 0.24833E+00
  weight for this iteration     100.00

 Free energy of the ion-electron system (eV)
  ---------------------------------------------------
  alpha Z        PSCENC =         0.57153965
  Ewald energy   TEWEN  =        54.22475701
  -Hartree energ DENC   =      -535.15216132
  -exchange      EXHF   =         0.00000000
  -V(xc)+E(xc)   XCENC  =        32.88005980
  PAW double counting   =      8543.52157012    -8539.69553165
  entropy T*S    EENTRO =        -0.00000000
  eigenvalues    EBANDS =      -150.59486383
  atomic energy  EATOM  =       579.32078282
  Solvation  Ediel_sol  =         0.00000000
  ---------------------------------------------------
  free energy    TOTEN  =       -14.92384740 eV

  energy without entropy =      -14.92384740  energy(sigma->0) =      -14.92384740


--------------------------------------------------------------------------------------------------------




----------------------------------------- Iteration    2(   2)  ---------------------------------------


    POTLOK:  cpu time    3.2926: real time    0.3103
    SETDIJ:  cpu time    0.0016: real time    0.0016
     EDDAV:  cpu time    9.8552: real time    0.3473
       DOS:  cpu time    0.0033: real time    0.0001
    CHARGE:  cpu time    1.4612: real time    0.0473
    MIXING:  cpu time    0.3031: real time    0.0103
    --------------------------------------------
      LOOP:  cpu time   14.9652: real time    0.7185

 eigenvalue-minimisations  :    20
 total energy-change (2. order) : 0.1405635E-02  (-0.2047218E-02)
 number of electron      10.0000002 magnetization 
 augmentation part       -0.0071419 magnetization 

 Broyden mixing:
  rms(total) = 0.49330E-01    rms(broyden)= 0.49324E-01
  rms(prec ) = 0.53082E-01
  weight for this iteration     100.00

 eigenvalues of (default mixing * dielectric matrix)
  average eigenvalue GAMMA=   1.0030
  1.0030

 Free energy of the ion-electron system (eV)
  ---------------------------------------------------
  alpha Z        PSCENC =         0.57153965
  Ewald energy   TEWEN  =        54.22475701
  -Hartree energ DENC   =      -535.75599622
  -exchange      EXHF   =         0.00000000
  -V(xc)+E(xc)   XCENC  =        32.91236658
  PAW double counting   =      8890.89792002    -8887.08512532
  entropy T*S    EENTRO =        -0.00000000
  eigenvalues    EBANDS =      -150.00868630
  atomic energy  EATOM  =       579.32078282
  Solvation  Ediel_sol  =         0.00000000
  ---------------------------------------------------
  free energy    TOTEN  =       -14.92244177 eV

  energy without entropy =      -14.92244177  energy(sigma->0) =      -14.92244177


--------------------------------------------------------------------------------------------------------




----------------------------------------- Iteration    2(   3)  ---------------------------------------


    POTLOK:  cpu time    4.0908: real time    0.3182
    SETDIJ:  cpu time    0.0017: real time    0.0017
     EDDAV:  cpu time    4.1208: real time    0.1500
       DOS:  cpu time    0.0032: real time    0.0001
    CHARGE:  cpu time    1.1810: real time    0.0383
    MIXING:  cpu time    0.2750: real time    0.0090
    --------------------------------------------
      LOOP:  cpu time    9.7248: real time    0.5190

 eigenvalue-minimisations  :    32
 total energy-change (2. order) : 0.7524728E-03  (-0.2557226E-03)
 number of electron      10.0000002 magnetization 
 augmentation part       -0.0075208 magnetization 

 Broyden mixing:
  rms(total) = 0.36274E-01    rms(broyden)= 0.36273E-01
  rms(prec ) = 0.37337E-01
  weight for this iteration     100.00

 eigenvalues of (default mixing * dielectric matrix)
  average eigenvalue GAMMA=   1.5812
  0.8850  2.2773

 Free energy of the ion-electron system (eV)
  ---------------------------------------------------
  alpha Z        PSCENC =         0.57153965
  Ewald energy   TEWEN  =        54.22475701
  -Hartree energ DENC   =      -536.19279388
  -exchange      EXHF   =         0.00000000
  -V(xc)+E(xc)   XCENC  =        32.93524315
  PAW double counting   =      8977.30899171    -8973.50636955
  entropy T*S    EENTRO =        -0.00000000
  eigenvalues    EBANDS =      -149.58384020
  atomic energy  EATOM  =       579.32078282
  Solvation  Ediel_sol  =         0.00000000
  ---------------------------------------------------
  free energy    TOTEN  =       -14.92168929 eV

  energy without entropy =      -14.92168929  energy(sigma->0) =      -14.92168929


--------------------------------------------------------------------------------------------------------




----------------------------------------- Iteration    2(   4)  ---------------------------------------


    POTLOK:  cpu time    4.4710: real time    0.3031
    SETDIJ:  cpu time    0.0016: real time    0.0016
     EDDAV:  cpu time    2.9498: real time    0.1169
       DOS:  cpu time    0.0030: real time    0.0001
    CHARGE:  cpu time    1.1166: real time    0.0392
    MIXING:  cpu time    0.2922: real time    0.0101
    --------------------------------------------
      LOOP:  cpu time    8.8844: real time    0.4727

 eigenvalue-minimisations  :    24
 total energy-change (2. order) : 0.7230791E-04  (-0.9993738E-04)
 number of electron      10.0000002 magnetization 
 augmentation part       -0.0075810 magnetization 

 Broyden mixing:
  rms(total) = 0.10573E-01    rms(broyden)= 0.10572E-01
  rms(prec ) = 0.10942E-01
  weight for this iteration     100.00

 eigenvalues of (default mixing * dielectric matrix)
  average eigenvalue GAMMA=   1.5768
  2.2607  0.8780  1.5917

 Free energy of the ion-electron system (eV)
  ---------------------------------------------------
  alpha Z        PSCENC =         0.57153965
  Ewald energy   TEWEN  =        54.22475701
  -Hartree energ DENC   =      -536.46670675
  -exchange      EXHF   =         0.00000000
  -V(xc)+E(xc)   XCENC  =        32.94972280
  PAW double counting   =      9134.71455261    -9130.92000756
  entropy T*S    EENTRO =        -0.00000000
  eigenvalues    EBANDS =      -149.31625757
  atomic energy  EATOM  =       579.32078282
  Solvation  Ediel_sol  =         0.00000000
  ---------------------------------------------------
  free energy    TOTEN  =       -14.92161699 eV

  energy without entropy =      -14.92161699  energy(sigma->0) =      -14.92161699


--------------------------------------------------------------------------------------------------------




----------------------------------------- Iteration    2(   5)  ---------------------------------------


    POTLOK:  cpu time    4.1701: real time    0.3072
    SETDIJ:  cpu time    0.0016: real time    0.0015
     EDDAV:  cpu time    4.1913: real time    0.1561
       DOS:  cpu time    0.0032: real time    0.0001
    CHARGE:  cpu time    1.2172: real time    0.0396
    MIXING:  cpu time    0.3434: real time    0.0112
    --------------------------------------------
      LOOP:  cpu time    9.9769: real time    0.5174

 eigenvalue-minimisations  :    20
 total energy-change (2. order) :-0.1608116E-04  (-0.9553254E-05)
 number of electron      10.0000002 magnetization 
 augmentation part       -0.0076267 magnetization 

 Broyden mixing:
  rms(total) = 0.83908E-02    rms(broyden)= 0.83907E-02
  rms(prec ) = 0.84505E-02
  weight for this iteration     100.00

 eigenvalues of (default mixing * dielectric matrix)
  average eigenvalue GAMMA=   1.5221
  2.5327  1.6048  1.1596  0.7914

 Free energy of the ion-electron system (eV)
  ---------------------------------------------------
  alpha Z        PSCENC =         0.57153965
  Ewald energy   TEWEN  =        54.22475701
  -Hartree energ DENC   =      -536.38991235
  -exchange      EXHF   =         0.00000000
  -V(xc)+E(xc)   XCENC  =        32.94569199
  PAW double counting   =      9165.51657995    -9161.72108699
  entropy T*S    EENTRO =        -0.00000000
  eigenvalues    EBANDS =      -149.38998514
  atomic energy  EATOM  =       579.32078282
  Solvation  Ediel_sol  =         0.00000000
  ---------------------------------------------------
  free energy    TOTEN  =       -14.92163307 eV

  energy without entropy =      -14.92163307  energy(sigma->0) =      -14.92163307


--------------------------------------------------------------------------------------------------------




----------------------------------------- Iteration    2(   6)  ---------------------------------------


    POTLOK:  cpu time    4.3299: real time    0.3051
    SETDIJ:  cpu time    0.0016: real time    0.0016
     EDDAV:  cpu time   14.3994: real time    0.4933
       DOS:  cpu time    0.0032: real time    0.0001
    CHARGE:  cpu time    1.1378: real time    0.0371
    MIXING:  cpu time    0.3259: real time    0.0106
    --------------------------------------------
      LOOP:  cpu time   20.2496: real time    0.8495

 eigenvalue-minimisations  :    24
 total energy-change (2. order) :-0.2111107E-04  (-0.4821303E-06)
 number of electron      10.0000002 magnetization 
 augmentation part       -0.0076115 magnetization 

 Broyden mixing:
  rms(total) = 0.29396E-02    rms(broyden)= 0.29396E-02
  rms(prec ) = 0.30181E-02
  weight for this iteration     100.00

 eigenvalues of (default mixing * dielectric matrix)
  average eigenvalue GAMMA=   1.5445
  2.2808  2.2808  0.8337  0.9817  1.3452

 Free energy of the ion-electron system (eV)
  ---------------------------------------------------
  alpha Z        PSCENC =         0.57153965
  Ewald energy   TEWEN  =        54.22475701
  -Hartree energ DENC   =      -536.38557767
  -exchange      EXHF   =         0.00000000
  -V(xc)+E(xc)   XCENC  =        32.94549851
  PAW double counting   =      9184.07085482    -9180.27530768
  entropy T*S    EENTRO =        -0.00000000
  eigenvalues    EBANDS =      -149.39420164
  atomic energy  EATOM  =       579.32078282
  Solvation  Ediel_sol  =         0.00000000
  ---------------------------------------------------
  free energy    TOTEN  =       -14.92165418 eV

  energy without entropy =      -14.92165418  energy(sigma->0) =      -14.92165418


--------------------------------------------------------------------------------------------------------




----------------------------------------- Iteration    2(   7)  ---------------------------------------


    POTLOK:  cpu time    4.4419: real time    0.2992
    SETDIJ:  cpu time    0.0015: real time    0.0015
     EDDAV:  cpu time    4.9976: real time    0.1819
       DOS:  cpu time    0.0030: real time    0.0001
    CHARGE:  cpu time    1.2780: real time    0.0434
    MIXING:  cpu time    0.3645: real time    0.0123
    --------------------------------------------
      LOOP:  cpu time   11.1355: real time    0.5400

 eigenvalue-minimisations  :    24
 total energy-change (2. order) :-0.2268592E-04  (-0.1467720E-06)
 number of electron      10.0000002 magnetization 
 augmentation part       -0.0075994 magnetization 

 Broyden mixing:
  rms(total) = 0.13641E-02    rms(broyden)= 0.13641E-02
  rms(prec ) = 0.14482E-02
  weight for this iteration     100.00

 eigenvalues of (default mixing * dielectric matrix)
  average eigenvalue GAMMA=   1.5896
  2.5774  2.5774  1.6392  1.0698  0.8665  0.8075

 Free energy of the ion-electron system (eV)
  ---------------------------------------------------
  alpha Z        PSCENC =         0.57153965
  Ewald energy   TEWEN  =        54.22475701
  -Hartree energ DENC   =      -536.38234605
  -exchange      EXHF   =         0.00000000
  -V(xc)+E(xc)   XCENC  =        32.94532274
  PAW double counting   =      9185.31798450    -9181.52223879
  entropy T*S    EENTRO =        -0.00000000
  eigenvalues    EBANDS =      -149.39747873
  atomic energy  EATOM  =       579.32078282
  Solvation  Ediel_sol  =         0.00000000
  ---------------------------------------------------
  free energy    TOTEN  =       -14.92167687 eV

  energy without entropy =      -14.92167687  energy(sigma->0) =      -14.92167687


--------------------------------------------------------------------------------------------------------




----------------------------------------- Iteration    2(   8)  ---------------------------------------


    POTLOK:  cpu time    4.0197: real time    0.3061
    SETDIJ:  cpu time    0.0016: real time    0.0016
     EDDAV:  cpu time    3.2763: real time    0.1249
       DOS:  cpu time    0.0033: real time    0.0001
    CHARGE:  cpu time    1.5647: real time    0.0511
    MIXING:  cpu time    0.3815: real time    0.0125
    --------------------------------------------
      LOOP:  cpu time    9.2960: real time    0.4979

 eigenvalue-minimisations  :    20
 total energy-change (2. order) :-0.2385841E-04  (-0.1009791E-06)
 number of electron      10.0000002 magnetization 
 augmentation part       -0.0075999 magnetization 

 Broyden mixing:
  rms(total) = 0.34028E-03    rms(broyden)= 0.34027E-03
  rms(prec ) = 0.44584E-03
  weight for this iteration     100.00

 eigenvalues of (default mixing * dielectric matrix)
  average eigenvalue GAMMA=   1.5122
  2.7120  2.2631  1.5248  1.3989  1.0270  0.8299  0.8299

 Free energy of the ion-electron system (eV)
  ---------------------------------------------------
  alpha Z        PSCENC =         0.57153965
  Ewald energy   TEWEN  =        54.22475701
  -Hartree energ DENC   =      -536.38938157
  -exchange      EXHF   =         0.00000000
  -V(xc)+E(xc)   XCENC  =        32.94568473
  PAW double counting   =      9189.42916004    -9185.63346551
  entropy T*S    EENTRO =        -0.00000000
  eigenvalues    EBANDS =      -149.39077789
  atomic energy  EATOM  =       579.32078282
  Solvation  Ediel_sol  =         0.00000000
  ---------------------------------------------------
  free energy    TOTEN  =       -14.92170072 eV

  energy without entropy =      -14.92170072  energy(sigma->0) =      -14.92170072


--------------------------------------------------------------------------------------------------------




----------------------------------------- Iteration    2(   9)  ---------------------------------------


    POTLOK:  cpu time    4.0508: real time    0.3131
    SETDIJ:  cpu time    0.0016: real time    0.0016
     EDDAV:  cpu time    3.4350: real time    0.1285
       DOS:  cpu time    0.0032: real time    0.0001
    CHARGE:  cpu time    1.1537: real time    0.0382
    MIXING:  cpu time    0.3871: real time    0.0127
    --------------------------------------------
      LOOP:  cpu time    9.0850: real time    0.4960

 eigenvalue-minimisations  :    24
 total energy-change (2. order) :-0.1035010E-04  (-0.2125020E-07)
 number of electron      10.0000002 magnetization 
 augmentation part       -0.0075978 magnetization 

 Broyden mixing:
  rms(total) = 0.15479E-03    rms(broyden)= 0.15479E-03
  rms(prec ) = 0.26718E-03
  weight for this iteration     100.00

 eigenvalues of (default mixing * dielectric matrix)
  average eigenvalue GAMMA=   1.5660
  2.4882  2.3638  2.3638  1.5462  1.2300  0.9287  0.8037  0.8037

 Free energy of the ion-electron system (eV)
  ---------------------------------------------------
  alpha Z        PSCENC =         0.57153965
  Ewald energy   TEWEN  =        54.22475701
  -Hartree energ DENC   =      -536.38926018
  -exchange      EXHF   =         0.00000000
  -V(xc)+E(xc)   XCENC  =        32.94566580
  PAW double counting   =      9189.66907617    -9185.87338644
  entropy T*S    EENTRO =        -0.00000000
  eigenvalues    EBANDS =      -149.39088590
  atomic energy  EATOM  =       579.32078282
  Solvation  Ediel_sol  =         0.00000000
  ---------------------------------------------------
  free energy    TOTEN  =       -14.92171107 eV

  energy without entropy =      -14.92171107  energy(sigma->0) =      -14.92171107


--------------------------------------------------------------------------------------------------------




----------------------------------------- Iteration    2(  10)  ---------------------------------------


    POTLOK:  cpu time    4.3882: real time    0.3050
    SETDIJ:  cpu time    0.0016: real time    0.0016
     EDDAV:  cpu time    5.4107: real time    0.1913
       DOS:  cpu time    0.0031: real time    0.0001
    CHARGE:  cpu time    1.1444: real time    0.0372
    MIXING:  cpu time    0.4051: real time    0.0131
    --------------------------------------------
      LOOP:  cpu time   11.4058: real time    0.5499

 eigenvalue-minimisations  :    22
 total energy-change (2. order) :-0.2262469E-04  (-0.1724220E-06)
 number of electron      10.0000002 magnetization 
 augmentation part       -0.0075994 magnetization 

 Broyden mixing:
  rms(total) = 0.21930E-03    rms(broyden)= 0.21930E-03
  rms(prec ) = 0.22596E-03
  weight for this iteration     100.00

 eigenvalues of (default mixing * dielectric matrix)
  average eigenvalue GAMMA=   1.7861
  4.7711  2.5712  2.0793  1.5746  1.5746  1.0074  0.9362  0.8182  0.7419

 Free energy of the ion-electron system (eV)
  ---------------------------------------------------
  alpha Z        PSCENC =         0.57153965
  Ewald energy   TEWEN  =        54.22475701
  -Hartree energ DENC   =      -536.39224460
  -exchange      EXHF   =         0.00000000
  -V(xc)+E(xc)   XCENC  =        32.94579289
  PAW double counting   =      9188.54459933    -9184.74893320
  entropy T*S    EENTRO =        -0.00000000
  eigenvalues    EBANDS =      -149.38802758
  atomic energy  EATOM  =       579.32078282
  Solvation  Ediel_sol  =         0.00000000
  ---------------------------------------------------
  free energy    TOTEN  =       -14.92173370 eV

  energy without entropy =      -14.92173370  energy(sigma->0) =      -14.92173370


--------------------------------------------------------------------------------------------------------




----------------------------------------- Iteration    2(  11)  ---------------------------------------


    POTLOK:  cpu time    4.3979: real time    0.3066
    SETDIJ:  cpu time    0.0016: real time    0.0016
     EDDAV:  cpu time    3.2795: real time    0.1222
       DOS:  cpu time    0.0032: real time    0.0001
    CHARGE:  cpu time    1.2145: real time    0.0383
    MIXING:  cpu time    0.4479: real time    0.0141
    --------------------------------------------
      LOOP:  cpu time    9.3975: real time    0.4845

 eigenvalue-minimisations  :    24
 total energy-change (2. order) :-0.1390231E-05  (-0.5188966E-08)
 number of electron      10.0000002 magnetization 
 augmentation part       -0.0075978 magnetization 

 Broyden mixing:
  rms(total) = 0.11071E-03    rms(broyden)= 0.11070E-03
  rms(prec ) = 0.11432E-03
  weight for this iteration     100.00

 eigenvalues of (default mixing * dielectric matrix)
  average eigenvalue GAMMA=   1.8008
  5.3452  2.5586  2.2954  1.6446  1.3592  1.1255  1.1255  0.7907  0.7907  0.9732

 Free energy of the ion-electron system (eV)
  ---------------------------------------------------
  alpha Z        PSCENC =         0.57153965
  Ewald energy   TEWEN  =        54.22475701
  -Hartree energ DENC   =      -536.39195884
  -exchange      EXHF   =         0.00000000
  -V(xc)+E(xc)   XCENC  =        32.94577760
  PAW double counting   =      9189.32566010    -9185.52997702
  entropy T*S    EENTRO =        -0.00000000
  eigenvalues    EBANDS =      -149.38831641
  atomic energy  EATOM  =       579.32078282
  Solvation  Ediel_sol  =         0.00000000
  ---------------------------------------------------
  free energy    TOTEN  =       -14.92173509 eV

  energy without entropy =      -14.92173509  energy(sigma->0) =      -14.92173509


--------------------------------------------------------------------------------------------------------




----------------------------------------- Iteration    2(  12)  ---------------------------------------


    POTLOK:  cpu time    4.4490: real time    0.3082
    SETDIJ:  cpu time    0.0016: real time    0.0016
     EDDAV:  cpu time    3.6325: real time    0.1342
       DOS:  cpu time    0.0029: real time    0.0001
    CHARGE:  cpu time    1.1329: real time    0.0371
    MIXING:  cpu time    0.4585: real time    0.0149
    --------------------------------------------
      LOOP:  cpu time    9.7299: real time    0.4978

 eigenvalue-minimisations  :    22
 total energy-change (2. order) :-0.1618834E-05  (-0.4156171E-08)
 number of electron      10.0000002 magnetization 
 augmentation part       -0.0075977 magnetization 

 Broyden mixing:
  rms(total) = 0.22847E-04    rms(broyden)= 0.22846E-04
  rms(prec ) = 0.26923E-04
  weight for this iteration     100.00

 eigenvalues of (default mixing * dielectric matrix)
  average eigenvalue GAMMA=   1.8871
  5.9408  2.8040  2.4529  2.0375  1.5685  1.5685  0.9825  0.9825  0.8470  0.8055
  0.7682

 Free energy of the ion-electron system (eV)
  ---------------------------------------------------
  alpha Z        PSCENC =         0.57153965
  Ewald energy   TEWEN  =        54.22475701
  -Hartree energ DENC   =      -536.39185686
  -exchange      EXHF   =         0.00000000
  -V(xc)+E(xc)   XCENC  =        32.94576928
  PAW double counting   =      9189.15086473    -9185.35518350
  entropy T*S    EENTRO =        -0.00000000
  eigenvalues    EBANDS =      -149.38840985
  atomic energy  EATOM  =       579.32078282
  Solvation  Ediel_sol  =         0.00000000
  ---------------------------------------------------
  free energy    TOTEN  =       -14.92173671 eV

  energy without entropy =      -14.92173671  energy(sigma->0) =      -14.92173671


--------------------------------------------------------------------------------------------------------




----------------------------------------- Iteration    2(  13)  ---------------------------------------


    POTLOK:  cpu time    5.7566: real time    0.3095
    SETDIJ:  cpu time    0.0015: real time    0.0015
     EDDAV:  cpu time    3.8157: real time    0.1394
       DOS:  cpu time    0.0030: real time    0.0001
    --------------------------------------------
      LOOP:  cpu time    9.6186: real time    0.4519

 eigenvalue-minimisations  :    24
 total energy-change (2. order) :-0.6622213E-06  (-0.1987782E-08)
 number of electron      10.0000002 magnetization 
 augmentation part       -0.0075977 magnetization 

 Free energy of the ion-electron system (eV)
  ---------------------------------------------------
  alpha Z        PSCENC =         0.57153965
  Ewald energy   TEWEN  =        54.22475701
  -Hartree energ DENC   =      -536.39167659
  -exchange      EXHF   =         0.00000000
  -V(xc)+E(xc)   XCENC  =        32.94575924
  PAW double counting   =      9189.05982863    -9185.26414582
  entropy T*S    EENTRO =        -0.00000000
  eigenvalues    EBANDS =      -149.38858230
  atomic energy  EATOM  =       579.32078282
  Solvation  Ediel_sol  =         0.00000000
  ---------------------------------------------------
  free energy    TOTEN  =       -14.92173737 eV

  energy without entropy =      -14.92173737  energy(sigma->0) =      -14.92173737


--------------------------------------------------------------------------------------------------------




 average (electrostatic) potential at core
  the test charge radii are     0.5770  0.5955
  (the norm of the test charge is              1.0000)
       1 -88.7354       2-122.3418
 
 
 
 E-fermi :  -7.7707     XC(G=0):  -1.1897     alpha+bet : -0.3665


 k-point     1 :       0.0000    0.0000    0.0000
  band No.  band energies     occupation 
      1     -29.1135      2.00000
      2     -13.7743      2.00000
      3     -11.5579      2.00000
      4     -11.5579      2.00000
      5      -8.6906      2.00000
      6      -1.5912      0.00000
      7      -1.5912      0.00000
      8      -0.2324      0.00000
      9       1.7304      0.00000
     10       1.8979      0.00000


--------------------------------------------------------------------------------------------------------


 soft charge-density along one line, spin component           1
         0         1         2         3         4         5         6         7         8         9
 total charge-density along one line
 
 pseudopotential strength for first ion, spin component:           1
 12.822  21.580  -0.000   0.051   0.000  -0.000   0.090   0.000
 21.580  36.318  -0.000   0.085   0.000  -0.000   0.151   0.000
 -0.000  -0.000  -3.219   0.000  -0.000  -5.773   0.000  -0.000
  0.051   0.085   0.000  -3.215   0.000   0.000  -5.766   0.000
  0.000   0.000  -0.000   0.000  -3.219  -0.000   0.000  -5.773
 -0.000  -0.000  -5.773   0.000  -0.000 -10.331   0.000  -0.000
  0.090   0.151   0.000  -5.766   0.000   0.000 -10.320   0.000
  0.000   0.000  -0.000   0.000  -5.773  -0.000   0.000 -10.331
 total augmentation occupancy for first ion, spin component:           1
  7.351  -2.639   0.000   6.892   0.000   0.000  -3.160   0.000
 -2.639   1.189  -0.000  -3.532   0.000   0.000   1.501  -0.000
  0.000  -0.000   3.379   0.000   0.000  -1.101   0.000   0.000
  6.892  -3.532   0.000  13.060  -0.000   0.000  -5.053   0.000
  0.000   0.000   0.000  -0.000   3.379   0.000  -0.000  -1.101
  0.000   0.000  -1.101   0.000   0.000   0.359   0.000   0.000
 -3.160   1.501   0.000  -5.053  -0.000   0.000   2.034   0.000
  0.000  -0.000   0.000   0.000  -1.101   0.000   0.000   0.359


------------------------ aborting loop because EDIFF is reached ----------------------------------------


    CHARGE:  cpu time    1.1685: real time    0.0382
    FORLOC:  cpu time    0.5594: real time    0.0182
    FORNL :  cpu time    0.2123: real time    0.0069
    STRESS:  cpu time    1.9557: real time    0.0643
    FORCOR:  cpu time    2.0243: real time    0.3273
    FORHAR:  cpu time    0.0760: real time    0.0760
    MIXING:  cpu time    0.3292: real time    0.0219
    OFIELD:  cpu time    0.0050: real time    0.0002

  FORCE on cell =-STRESS in cart. coord.  units (eV):
  Direction    XX          YY          ZZ          XY          YZ          ZX
  --------------------------------------------------------------------------------------
  Alpha Z     0.57154     0.57154     0.57154
  Ewald     -85.97602   -85.97602   226.17674     0.00000     0.00000     0.00000
  Hartree   142.02685   142.02685   252.33778    -0.00000    -0.00000    -0.00000
  E(xc)     -46.01249   -46.01249   -45.23951     0.00000    -0.00000    -0.00000
  Local    -257.07336  -257.07336  -658.53983     0.00000    -0.00000    -0.00000
  n-local    -2.92508    -2.92508    -7.69935    -0.00000     0.00000     0.00000
  augment     0.46050     0.46050     0.69948    -0.00000    -0.00000    -0.00000
  Kinetic   247.48786   247.48786   231.80758     0.00000    -0.00000     0.00000
  Fock        0.00000     0.00000     0.00000     0.00000     0.00000     0.00000
  -------------------------------------------------------------------------------------
  Total      -1.44020    -1.44020     0.11443     0.00000     0.00000     0.00000
  in kB      -4.50675    -4.50675     0.35808     0.00000     0.00000     0.00000
  external pressure =       -2.89 kB  Pullay stress =        0.00 kB


 VOLUME and BASIS-vectors are now :
 -----------------------------------------------------------------------------
  energy-cutoff  :      700.00
  volume of cell :      512.00
      direct lattice vectors                 reciprocal lattice vectors
     8.000000000  0.000000000  0.000000000     0.125000000  0.000000000  0.000000000
     0.000000000  8.000000000  0.000000000     0.000000000  0.125000000  0.000000000
     0.000000000  0.000000000  8.000000000     0.000000000  0.000000000  0.125000000

  length of vectors
     8.000000000  8.000000000  8.000000000     0.125000000  0.125000000  0.125000000


 FORCES acting on ions
    electron-ion (+dipol)            ewald-force                    non-local-force                 convergence-correction
 -----------------------------------------------------------------------------------------------
   0.579E-15 0.159E-13 0.243E+03   -.163E-16 0.138E-16 -.271E+03   0.000E+00 0.000E+00 0.259E+02   0.338E-13 0.112E-13 -.137E-04
   -.453E-16 -.738E-14 -.218E+03   0.532E-16 0.419E-16 0.271E+03   0.000E+00 0.517E-25 -.513E+02   0.272E-13 -.413E-14 0.399E-04
 -----------------------------------------------------------------------------------------------
   0.534E-15 0.854E-14 0.255E+02   0.369E-16 0.557E-16 0.000E+00   0.000E+00 0.517E-25 -.255E+02   0.610E-13 0.710E-14 0.262E-04
 
 
 POSITION                                       TOTAL-FORCE (eV/Angst)
 -----------------------------------------------------------------------------------
      0.00000      0.00000      0.02000         0.000000     -0.000000     -1.456737
      0.00000      0.00000      1.14300        -0.000000      0.000000      1.456737
 -----------------------------------------------------------------------------------
    total drift:                                0.000000      0.000000      0.000440


--------------------------------------------------------------------------------------------------------



  FREE ENERGIE OF THE ION-ELECTRON SYSTEM (eV)
  ---------------------------------------------------
  free  energy   TOTEN  =       -14.92173737 eV

  energy  without entropy=      -14.92173737  energy(sigma->0) =      -14.92173737
 
 d Force =-0.5882592E-02[-0.291E-01, 0.174E-01]  d Energy =-0.5313450E-02-0.569E-03
 d Force =-0.5317752E+01[-0.541E+01,-0.522E+01]  d Ewald  =-0.5316914E+01-0.838E-03


--------------------------------------------------------------------------------------------------------


    POTLOK:  cpu time    5.7024: real time    0.3126


--------------------------------------------------------------------------------------------------------


 stress matrix after NEB project (eV)
     -1.44020     -0.00000      0.00000
      0.00000     -1.44020      0.00000
     -0.00000      0.00000      0.11443
  FORCES: max atom, RMS     1.456737    1.456737
  FORCE total and by dimension    2.060137    1.456737
  Stress total and by dimension    2.039964    1.440201
 Finite differences progress:
  Degree of freedom:   1/  2
  Displacement:        1/  2
  Total:               1/  4
  LATTYP: Found a simple cubic cell.
 ALAT       =     8.0000000000
  
  Lattice vectors:
  
 A1 = (   8.0000000000,   0.0000000000,   0.0000000000)
 A2 = (   0.0000000000,   8.0000000000,   0.0000000000)
 A3 = (   0.0000000000,   0.0000000000,   8.0000000000)


Analysis of symmetry for initial positions (statically):
=====================================================================
 Subroutine PRICEL returns:
 Original cell was already a primitive cell.
 

 Routine SETGRP: Setting up the symmetry group for a 
 simple cubic supercell.


 Subroutine GETGRP returns: Found  8 space group operations
 (whereof  8 operations were pure point group operations)
 out of a pool of 48 trial point group operations.


The static configuration has the point symmetry C_4v.


Analysis of symmetry for dynamics (positions and initial velocities):
=====================================================================
 Subroutine PRICEL returns:
 Original cell was already a primitive cell.
 

 Routine SETGRP: Setting up the symmetry group for a 
 simple cubic supercell.


 Subroutine GETGRP returns: Found  8 space group operations
 (whereof  8 operations were pure point group operations)
 out of a pool of 48 trial point group operations.


The dynamic configuration has the point symmetry C_4v.


Analysis of constrained symmetry for selective dynamics:
=====================================================================
 Subroutine PRICEL returns:
 Original cell was already a primitive cell.
 

 Routine SETGRP: Setting up the symmetry group for a 
 simple cubic supercell.


 Subroutine GETGRP returns: Found  8 space group operations
 (whereof  8 operations were pure point group operations)
 out of a pool of 48 trial point group operations.


The constrained configuration has the point symmetry C_4v.


 Subroutine INISYM returns: Found  8 space group operations
 (whereof  8 operations are pure point group operations),
 and found     1 'primitive' translations

 
 KPOINTS: Gamma-point only                        

Automatic generation of k-mesh.
Space group operators:
 irot       det(A)        alpha          n_x          n_y          n_z        tau_x        tau_y        tau_z
    1     1.000000     0.000000     1.000000     0.000000     0.000000     0.000000     0.000000     0.000000
    2     1.000000    90.000000     0.000000     0.000000    -1.000000     0.000000     0.000000     0.000000
    3     1.000000   180.000000     0.000000     0.000000     1.000000     0.000000     0.000000     0.000000
    4     1.000000    90.000000     0.000000     0.000000     1.000000     0.000000     0.000000     0.000000
    5    -1.000000   180.000000     1.000000     0.000000     0.000000     0.000000     0.000000     0.000000
    6    -1.000000   180.000000     0.707107     0.707107     0.000000     0.000000     0.000000     0.000000
    7    -1.000000   180.000000     0.000000     1.000000     0.000000     0.000000     0.000000     0.000000
    8    -1.000000   180.000000     0.707107    -0.707107     0.000000     0.000000     0.000000     0.000000
 
 Subroutine IBZKPT returns following result:
 ===========================================
 
 Found      1 irreducible k-points:
 
 Following reciprocal coordinates:
            Coordinates               Weight
  0.000000  0.000000  0.000000      1.000000
 
 Following cartesian coordinates:
            Coordinates               Weight
  0.000000  0.000000  0.000000      1.000000
 
 use seriel FFT for wavefunctions x direction half grid
    WAVPRE:  cpu time    0.0821: real time    0.0822
 FEWALD executed in parallel
    FEWALD:  cpu time    0.0005: real time    0.0005
    ORTHCH:  cpu time    0.2644: real time    0.0104
     LOOP+:  cpu time  158.8466: real time    8.2481


----------------------------------------- Iteration    3(   1)  ---------------------------------------


    POTLOK:  cpu time    5.7901: real time    0.3094
    SETDIJ:  cpu time    0.0018: real time    0.0018
     EDDAV:  cpu time    3.5140: real time    0.1319
       DOS:  cpu time    0.0037: real time    0.0001
    CHARGE:  cpu time    1.2997: real time    0.0425
    MIXING:  cpu time    0.2807: real time    0.0092
    --------------------------------------------
      LOOP:  cpu time   10.9262: real time    0.4961

 eigenvalue-minimisations  :    20
 total energy-change (2. order) : 0.2369655E-01  (-0.7197462E+00)
 number of electron      10.0000001 magnetization 
 augmentation part       -0.0110305 magnetization 

 Broyden mixing:
  rms(total) = 0.46136E+00    rms(broyden)= 0.46132E+00
  rms(prec ) = 0.46675E+00
  weight for this iteration     100.00

 Free energy of the ion-electron system (eV)
  ---------------------------------------------------
  alpha Z        PSCENC =         0.57153965
  Ewald energy   TEWEN  =        43.77747250
  -Hartree energ DENC   =      -530.34075250
  -exchange      EXHF   =         0.00000000
  -V(xc)+E(xc)   XCENC  =        32.76249089
  PAW double counting   =      9189.08449634    -9185.28881360
  entropy T*S    EENTRO =        -0.00000000
  eigenvalues    EBANDS =      -144.78525624
  atomic energy  EATOM  =       579.32078282
  Solvation  Ediel_sol  =         0.00000000
  ---------------------------------------------------
  free energy    TOTEN  =       -14.89804016 eV

  energy without entropy =      -14.89804016  energy(sigma->0) =      -14.89804016


--------------------------------------------------------------------------------------------------------




----------------------------------------- Iteration    3(   2)  ---------------------------------------


    POTLOK:  cpu time    4.2666: real time    0.2818
    SETDIJ:  cpu time    0.0016: real time    0.0016
     EDDAV:  cpu time    3.1512: real time    0.1223
       DOS:  cpu time    0.0031: real time    0.0001
    CHARGE:  cpu time    1.1096: real time    0.0372
    MIXING:  cpu time    0.2414: real time    0.0082
    --------------------------------------------
      LOOP:  cpu time    8.8261: real time    0.4529

 eigenvalue-minimisations  :    20
 total energy-change (2. order) : 0.6512383E-02  (-0.8579330E-02)
 number of electron      10.0000001 magnetization 
 augmentation part       -0.0137198 magnetization 

 Broyden mixing:
  rms(total) = 0.10158E+00    rms(broyden)= 0.10157E+00
  rms(prec ) = 0.10858E+00
  weight for this iteration     100.00

 eigenvalues of (default mixing * dielectric matrix)
  average eigenvalue GAMMA=   0.9962
  0.9962

 Free energy of the ion-electron system (eV)
  ---------------------------------------------------
  alpha Z        PSCENC =         0.57153965
  Ewald energy   TEWEN  =        43.77747250
  -Hartree energ DENC   =      -529.14510754
  -exchange      EXHF   =         0.00000000
  -V(xc)+E(xc)   XCENC  =        32.70018646
  PAW double counting   =      8551.19313353    -8547.37094749
  entropy T*S    EENTRO =        -0.00000000
  eigenvalues    EBANDS =      -145.93858770
  atomic energy  EATOM  =       579.32078282
  Solvation  Ediel_sol  =         0.00000000
  ---------------------------------------------------
  free energy    TOTEN  =       -14.89152777 eV

  energy without entropy =      -14.89152777  energy(sigma->0) =      -14.89152777


--------------------------------------------------------------------------------------------------------




----------------------------------------- Iteration    3(   3)  ---------------------------------------


    POTLOK:  cpu time    4.3334: real time    0.2689
    SETDIJ:  cpu time    0.0016: real time    0.0016
     EDDAV:  cpu time   11.3244: real time    0.3950
       DOS:  cpu time    0.0035: real time    0.0001
    CHARGE:  cpu time    1.3820: real time    0.0452
    MIXING:  cpu time    0.2983: real time    0.0097
    --------------------------------------------
      LOOP:  cpu time   17.3922: real time    0.7221

 eigenvalue-minimisations  :    32
 total energy-change (2. order) : 0.2594665E-02  (-0.1287837E-02)
 number of electron      10.0000001 magnetization 
 augmentation part       -0.0126841 magnetization 

 Broyden mixing:
  rms(total) = 0.81430E-01    rms(broyden)= 0.81427E-01
  rms(prec ) = 0.83244E-01
  weight for this iteration     100.00

 eigenvalues of (default mixing * dielectric matrix)
  average eigenvalue GAMMA=   1.6166
  0.8412  2.3921

 Free energy of the ion-electron system (eV)
  ---------------------------------------------------
  alpha Z        PSCENC =         0.57153965
  Ewald energy   TEWEN  =        43.77747250
  -Hartree energ DENC   =      -528.27383274
  -exchange      EXHF   =         0.00000000
  -V(xc)+E(xc)   XCENC  =        32.65627873
  PAW double counting   =      8374.27521407    -8370.43321864
  entropy T*S    EENTRO =        -0.00000000
  eigenvalues    EBANDS =      -146.78316950
  atomic energy  EATOM  =       579.32078282
  Solvation  Ediel_sol  =         0.00000000
  ---------------------------------------------------
  free energy    TOTEN  =       -14.88893311 eV

  energy without entropy =      -14.88893311  energy(sigma->0) =      -14.88893311


--------------------------------------------------------------------------------------------------------




----------------------------------------- Iteration    3(   4)  ---------------------------------------


    POTLOK:  cpu time    4.2197: real time    0.2809
    SETDIJ:  cpu time    0.0016: real time    0.0016
     EDDAV:  cpu time    3.0328: real time    0.1146
       DOS:  cpu time    0.0033: real time    0.0001
    CHARGE:  cpu time    1.1701: real time    0.0380
    MIXING:  cpu time    0.2851: real time    0.0092
    --------------------------------------------
      LOOP:  cpu time    8.7642: real time    0.4462

 eigenvalue-minimisations  :    20
 total energy-change (2. order) : 0.1407153E-03  (-0.3850271E-03)
 number of electron      10.0000001 magnetization 
 augmentation part       -0.0126448 magnetization 

 Broyden mixing:
  rms(total) = 0.20899E-01    rms(broyden)= 0.20897E-01
  rms(prec ) = 0.21710E-01
  weight for this iteration     100.00

 eigenvalues of (default mixing * dielectric matrix)
  average eigenvalue GAMMA=   1.5070
  2.1919  1.4954  0.8335

 Free energy of the ion-electron system (eV)
  ---------------------------------------------------
  alpha Z        PSCENC =         0.57153965
  Ewald energy   TEWEN  =        43.77747250
  -Hartree energ DENC   =      -527.79921396
  -exchange      EXHF   =         0.00000000
  -V(xc)+E(xc)   XCENC  =        32.63411007
  PAW double counting   =      8040.51435000    -8036.65745064
  entropy T*S    EENTRO =        -0.00000000
  eigenvalues    EBANDS =      -147.25038284
  atomic energy  EATOM  =       579.32078282
  Solvation  Ediel_sol  =         0.00000000
  ---------------------------------------------------
  free energy    TOTEN  =       -14.88879239 eV

  energy without entropy =      -14.88879239  energy(sigma->0) =      -14.88879239


--------------------------------------------------------------------------------------------------------




----------------------------------------- Iteration    3(   5)  ---------------------------------------


    POTLOK:  cpu time    4.4582: real time    0.2691
    SETDIJ:  cpu time    0.0016: real time    0.0016
     EDDAV:  cpu time    3.3141: real time    0.1228
       DOS:  cpu time    0.0036: real time    0.0001
    CHARGE:  cpu time    1.3480: real time    0.0438
    MIXING:  cpu time    0.3565: real time    0.0116
    --------------------------------------------
      LOOP:  cpu time    9.5350: real time    0.4507

 eigenvalue-minimisations  :    20
 total energy-change (2. order) :-0.1102532E-03  (-0.3929720E-04)
 number of electron      10.0000001 magnetization 
 augmentation part       -0.0125203 magnetization 

 Broyden mixing:
  rms(total) = 0.18377E-01    rms(broyden)= 0.18377E-01
  rms(prec ) = 0.18532E-01
  weight for this iteration     100.00

 eigenvalues of (default mixing * dielectric matrix)
  average eigenvalue GAMMA=   1.5302
  2.7164  1.4455  1.1973  0.7615

 Free energy of the ion-electron system (eV)
  ---------------------------------------------------
  alpha Z        PSCENC =         0.57153965
  Ewald energy   TEWEN  =        43.77747250
  -Hartree energ DENC   =      -527.94017927
  -exchange      EXHF   =         0.00000000
  -V(xc)+E(xc)   XCENC  =        32.64185302
  PAW double counting   =      7992.07024658    -7988.21539171
  entropy T*S    EENTRO =        -0.00000000
  eigenvalues    EBANDS =      -147.11522624
  atomic energy  EATOM  =       579.32078282
  Solvation  Ediel_sol  =         0.00000000
  ---------------------------------------------------
  free energy    TOTEN  =       -14.88890265 eV

  energy without entropy =      -14.88890265  energy(sigma->0) =      -14.88890265


--------------------------------------------------------------------------------------------------------




----------------------------------------- Iteration    3(   6)  ---------------------------------------


    POTLOK:  cpu time    4.2143: real time    0.2824
    SETDIJ:  cpu time    0.0017: real time    0.0017
     EDDAV:  cpu time    3.4147: real time    0.1289
       DOS:  cpu time    0.0032: real time    0.0001
    CHARGE:  cpu time    1.1283: real time    0.0366
    MIXING:  cpu time    0.3253: real time    0.0106
    --------------------------------------------
      LOOP:  cpu time    9.1377: real time    0.4618

 eigenvalue-minimisations  :    20
 total energy-change (2. order) :-0.8216661E-04  (-0.3562069E-05)
 number of electron      10.0000001 magnetization 
 augmentation part       -0.0125659 magnetization 

 Broyden mixing:
  rms(total) = 0.55134E-02    rms(broyden)= 0.55134E-02
  rms(prec ) = 0.56925E-02
  weight for this iteration     100.00

 eigenvalues of (default mixing * dielectric matrix)
  average eigenvalue GAMMA=   1.4659
  2.4850  1.7027  1.4554  0.7979  0.8887

 Free energy of the ion-electron system (eV)
  ---------------------------------------------------
  alpha Z        PSCENC =         0.57153965
  Ewald energy   TEWEN  =        43.77747250
  -Hartree energ DENC   =      -527.96369406
  -exchange      EXHF   =         0.00000000
  -V(xc)+E(xc)   XCENC  =        32.64322903
  PAW double counting   =      7940.26000726    -7936.40539609
  entropy T*S    EENTRO =        -0.00000000
  eigenvalues    EBANDS =      -147.09292592
  atomic energy  EATOM  =       579.32078282
  Solvation  Ediel_sol  =         0.00000000
  ---------------------------------------------------
  free energy    TOTEN  =       -14.88898481 eV

  energy without entropy =      -14.88898481  energy(sigma->0) =      -14.88898481


--------------------------------------------------------------------------------------------------------




----------------------------------------- Iteration    3(   7)  ---------------------------------------


    POTLOK:  cpu time    4.4497: real time    0.2736
    SETDIJ:  cpu time    0.0016: real time    0.0016
     EDDAV:  cpu time    2.8713: real time    0.1115
       DOS:  cpu time    0.0029: real time    0.0001
    CHARGE:  cpu time    1.1142: real time    0.0376
    MIXING:  cpu time    0.3398: real time    0.0114
    --------------------------------------------
      LOOP:  cpu time    8.8298: real time    0.4375

 eigenvalue-minimisations  :    20
 total energy-change (2. order) :-0.3940680E-04  (-0.6300690E-06)
 number of electron      10.0000001 magnetization 
 augmentation part       -0.0125939 magnetization 

 Broyden mixing:
  rms(total) = 0.35808E-02    rms(broyden)= 0.35807E-02
  rms(prec ) = 0.37231E-02
  weight for this iteration     100.00

 eigenvalues of (default mixing * dielectric matrix)
  average eigenvalue GAMMA=   1.4253
  2.5004  1.7888  1.7888  0.8743  0.8743  0.7253

 Free energy of the ion-electron system (eV)
  ---------------------------------------------------
  alpha Z        PSCENC =         0.57153965
  Ewald energy   TEWEN  =        43.77747250
  -Hartree energ DENC   =      -527.97144188
  -exchange      EXHF   =         0.00000000
  -V(xc)+E(xc)   XCENC  =        32.64350590
  PAW double counting   =      7942.86712445    -7939.01294286
  entropy T*S    EENTRO =        -0.00000000
  eigenvalues    EBANDS =      -147.08506480
  atomic energy  EATOM  =       579.32078282
  Solvation  Ediel_sol  =         0.00000000
  ---------------------------------------------------
  free energy    TOTEN  =       -14.88902422 eV

  energy without entropy =      -14.88902422  energy(sigma->0) =      -14.88902422


--------------------------------------------------------------------------------------------------------




----------------------------------------- Iteration    3(   8)  ---------------------------------------


    POTLOK:  cpu time    4.2692: real time    0.2763
    SETDIJ:  cpu time    0.0016: real time    0.0016
     EDDAV:  cpu time    3.5158: real time    0.1376
       DOS:  cpu time    0.0030: real time    0.0001
    CHARGE:  cpu time    1.0696: real time    0.0372
    MIXING:  cpu time    0.3442: real time    0.0119
    --------------------------------------------
      LOOP:  cpu time    9.2499: real time    0.4662

 eigenvalue-minimisations  :    20
 total energy-change (2. order) :-0.4669933E-04  (-0.2906321E-06)
 number of electron      10.0000001 magnetization 
 augmentation part       -0.0125922 magnetization 

 Broyden mixing:
  rms(total) = 0.49232E-03    rms(broyden)= 0.49231E-03
  rms(prec ) = 0.84899E-03
  weight for this iteration     100.00

 eigenvalues of (default mixing * dielectric matrix)
  average eigenvalue GAMMA=   1.5176
  2.8559  2.3740  1.4775  1.3729  0.9830  0.7798  0.7798

 Free energy of the ion-electron system (eV)
  ---------------------------------------------------
  alpha Z        PSCENC =         0.57153965
  Ewald energy   TEWEN  =        43.77747250
  -Hartree energ DENC   =      -527.96059113
  -exchange      EXHF   =         0.00000000
  -V(xc)+E(xc)   XCENC  =        32.64286872
  PAW double counting   =      7936.61056743    -7932.75637148
  entropy T*S    EENTRO =        -0.00000000
  eigenvalues    EBANDS =      -147.09533942
  atomic energy  EATOM  =       579.32078282
  Solvation  Ediel_sol  =         0.00000000
  ---------------------------------------------------
  free energy    TOTEN  =       -14.88907092 eV

  energy without entropy =      -14.88907092  energy(sigma->0) =      -14.88907092


--------------------------------------------------------------------------------------------------------




----------------------------------------- Iteration    3(   9)  ---------------------------------------


    POTLOK:  cpu time    4.2460: real time    0.3029
    SETDIJ:  cpu time    0.0016: real time    0.0015
     EDDAV:  cpu time    3.7425: real time    0.1462
       DOS:  cpu time    0.0032: real time    0.0001
    CHARGE:  cpu time    1.2824: real time    0.0438
    MIXING:  cpu time    0.3952: real time    0.0138
    --------------------------------------------
      LOOP:  cpu time    9.7177: real time    0.5099

 eigenvalue-minimisations  :    20
 total energy-change (2. order) :-0.5547389E-04  (-0.6128098E-06)
 number of electron      10.0000001 magnetization 
 augmentation part       -0.0126040 magnetization 

 Broyden mixing:
  rms(total) = 0.16996E-02    rms(broyden)= 0.16996E-02
  rms(prec ) = 0.17243E-02
  weight for this iteration     100.00

 eigenvalues of (default mixing * dielectric matrix)
  average eigenvalue GAMMA=   1.5436
  3.0066  2.2956  1.9365  1.6714  0.9639  0.9639  0.7554  0.7554

 Free energy of the ion-electron system (eV)
  ---------------------------------------------------
  alpha Z        PSCENC =         0.57153965
  Ewald energy   TEWEN  =        43.77747250
  -Hartree energ DENC   =      -527.95917449
  -exchange      EXHF   =         0.00000000
  -V(xc)+E(xc)   XCENC  =        32.64275968
  PAW double counting   =      7931.21988344    -7927.36580610
  entropy T*S    EENTRO =        -0.00000000
  eigenvalues    EBANDS =      -147.09658388
  atomic energy  EATOM  =       579.32078282
  Solvation  Ediel_sol  =         0.00000000
  ---------------------------------------------------
  free energy    TOTEN  =       -14.88912639 eV

  energy without entropy =      -14.88912639  energy(sigma->0) =      -14.88912639


--------------------------------------------------------------------------------------------------------




----------------------------------------- Iteration    3(  10)  ---------------------------------------


    POTLOK:  cpu time    4.0079: real time    0.2932
    SETDIJ:  cpu time    0.0016: real time    0.0016
     EDDAV:  cpu time    2.7531: real time    0.1100
       DOS:  cpu time    0.0029: real time    0.0001
    CHARGE:  cpu time    1.0749: real time    0.0373
    MIXING:  cpu time    0.3758: real time    0.0131
    --------------------------------------------
      LOOP:  cpu time    8.2639: real time    0.4569

 eigenvalue-minimisations  :    22
 total energy-change (2. order) :-0.2509752E-04  (-0.2175844E-06)
 number of electron      10.0000001 magnetization 
 augmentation part       -0.0126027 magnetization 

 Broyden mixing:
  rms(total) = 0.42066E-03    rms(broyden)= 0.42065E-03
  rms(prec ) = 0.43202E-03
  weight for this iteration     100.00

 eigenvalues of (default mixing * dielectric matrix)
  average eigenvalue GAMMA=   1.7273
  4.3835  2.6952  2.2607  1.5606  1.2032  1.0565  0.8880  0.7725  0.7253

 Free energy of the ion-electron system (eV)
  ---------------------------------------------------
  alpha Z        PSCENC =         0.57153965
  Ewald energy   TEWEN  =        43.77747250
  -Hartree energ DENC   =      -527.95477565
  -exchange      EXHF   =         0.00000000
  -V(xc)+E(xc)   XCENC  =        32.64254894
  PAW double counting   =      7934.80981633    -7930.95567403
  entropy T*S    EENTRO =        -0.00000000
  eigenvalues    EBANDS =      -147.10086206
  atomic energy  EATOM  =       579.32078282
  Solvation  Ediel_sol  =         0.00000000
  ---------------------------------------------------
  free energy    TOTEN  =       -14.88915149 eV

  energy without entropy =      -14.88915149  energy(sigma->0) =      -14.88915149


--------------------------------------------------------------------------------------------------------




----------------------------------------- Iteration    3(  11)  ---------------------------------------


    POTLOK:  cpu time    4.1254: real time    0.2944
    SETDIJ:  cpu time    0.0016: real time    0.0016
     EDDAV:  cpu time    3.5084: real time    0.1365
       DOS:  cpu time    0.0031: real time    0.0001
    CHARGE:  cpu time    1.2609: real time    0.0436
    MIXING:  cpu time    0.4572: real time    0.0154
    --------------------------------------------
      LOOP:  cpu time    9.4046: real time    0.4932

 eigenvalue-minimisations  :    24
 total energy-change (2. order) :-0.5705794E-05  (-0.3264956E-07)
 number of electron      10.0000001 magnetization 
 augmentation part       -0.0126015 magnetization 

 Broyden mixing:
  rms(total) = 0.17463E-03    rms(broyden)= 0.17463E-03
  rms(prec ) = 0.18278E-03
  weight for this iteration     100.00

 eigenvalues of (default mixing * dielectric matrix)
  average eigenvalue GAMMA=   1.8012
  5.3903  2.6313  2.2884  1.6546  1.6546  0.9729  0.9426  0.9426  0.7676  0.7676

 Free energy of the ion-electron system (eV)
  ---------------------------------------------------
  alpha Z        PSCENC =         0.57153965
  Ewald energy   TEWEN  =        43.77747250
  -Hartree energ DENC   =      -527.95307929
  -exchange      EXHF   =         0.00000000
  -V(xc)+E(xc)   XCENC  =        32.64245983
  PAW double counting   =      7935.66166617    -7931.80749972
  entropy T*S    EENTRO =        -0.00000000
  eigenvalues    EBANDS =      -147.10249915
  atomic energy  EATOM  =       579.32078282
  Solvation  Ediel_sol  =         0.00000000
  ---------------------------------------------------
  free energy    TOTEN  =       -14.88915720 eV

  energy without entropy =      -14.88915720  energy(sigma->0) =      -14.88915720


--------------------------------------------------------------------------------------------------------




----------------------------------------- Iteration    3(  12)  ---------------------------------------


    POTLOK:  cpu time    4.0040: real time    0.3075
    SETDIJ:  cpu time    0.0017: real time    0.0017
     EDDAV:  cpu time    3.1332: real time    0.1217
       DOS:  cpu time    0.0030: real time    0.0001
    CHARGE:  cpu time    1.1033: real time    0.0372
    MIXING:  cpu time    0.4512: real time    0.0152
    --------------------------------------------
      LOOP:  cpu time    8.7508: real time    0.4852

 eigenvalue-minimisations  :    20
 total energy-change (2. order) :-0.2294638E-05  (-0.7291963E-08)
 number of electron      10.0000001 magnetization 
 augmentation part       -0.0126021 magnetization 

 Broyden mixing:
  rms(total) = 0.76562E-04    rms(broyden)= 0.76561E-04
  rms(prec ) = 0.82280E-04
  weight for this iteration     100.00

 eigenvalues of (default mixing * dielectric matrix)
  average eigenvalue GAMMA=   1.8831
  6.0641  2.8109  2.4188  2.1578  1.5036  1.3592  1.0055  1.0055  0.7639  0.7639
  0.8607

 Free energy of the ion-electron system (eV)
  ---------------------------------------------------
  alpha Z        PSCENC =         0.57153965
  Ewald energy   TEWEN  =        43.77747250
  -Hartree energ DENC   =      -527.95321870
  -exchange      EXHF   =         0.00000000
  -V(xc)+E(xc)   XCENC  =        32.64247221
  PAW double counting   =      7935.53100162    -7931.67683532
  entropy T*S    EENTRO =        -0.00000000
  eigenvalues    EBANDS =      -147.10237427
  atomic energy  EATOM  =       579.32078282
  Solvation  Ediel_sol  =         0.00000000
  ---------------------------------------------------
  free energy    TOTEN  =       -14.88915949 eV

  energy without entropy =      -14.88915949  energy(sigma->0) =      -14.88915949


--------------------------------------------------------------------------------------------------------




----------------------------------------- Iteration    3(  13)  ---------------------------------------


    POTLOK:  cpu time    5.5197: real time    0.3052
    SETDIJ:  cpu time    0.0015: real time    0.0016
     EDDAV:  cpu time    3.1667: real time    0.1218
       DOS:  cpu time    0.0030: real time    0.0001
    CHARGE:  cpu time    1.1391: real time    0.0383
    MIXING:  cpu time    0.4679: real time    0.0159
    --------------------------------------------
      LOOP:  cpu time   10.3470: real time    0.4847

 eigenvalue-minimisations  :    22
 total energy-change (2. order) :-0.1536355E-05  (-0.7324434E-08)
 number of electron      10.0000001 magnetization 
 augmentation part       -0.0126025 magnetization 

 Broyden mixing:
  rms(total) = 0.46737E-04    rms(broyden)= 0.46736E-04
  rms(prec ) = 0.47903E-04
  weight for this iteration     100.00

 eigenvalues of (default mixing * dielectric matrix)
  average eigenvalue GAMMA=   1.9126
  6.1099  2.5918  2.5918  2.3158  2.3158  1.6258  1.0081  1.0081  0.7619  0.7619
  0.9665  0.8936

 Free energy of the ion-electron system (eV)
  ---------------------------------------------------
  alpha Z        PSCENC =         0.57153965
  Ewald energy   TEWEN  =        43.77747250
  -Hartree energ DENC   =      -527.95366473
  -exchange      EXHF   =         0.00000000
  -V(xc)+E(xc)   XCENC  =        32.64250094
  PAW double counting   =      7935.74892733    -7931.89476513
  entropy T*S    EENTRO =        -0.00000000
  eigenvalues    EBANDS =      -147.10195440
  atomic energy  EATOM  =       579.32078282
  Solvation  Ediel_sol  =         0.00000000
  ---------------------------------------------------
  free energy    TOTEN  =       -14.88916103 eV

  energy without entropy =      -14.88916103  energy(sigma->0) =      -14.88916103


--------------------------------------------------------------------------------------------------------




----------------------------------------- Iteration    3(  14)  ---------------------------------------


    POTLOK:  cpu time    5.5287: real time    0.3176
    SETDIJ:  cpu time    0.0017: real time    0.0017
     EDDAV:  cpu time    3.8403: real time    0.1454
       DOS:  cpu time    0.0030: real time    0.0001
    --------------------------------------------
      LOOP:  cpu time    9.4130: real time    0.4661

 eigenvalue-minimisations  :    24
 total energy-change (2. order) :-0.3481315E-06  (-0.1128154E-08)
 number of electron      10.0000001 magnetization 
 augmentation part       -0.0126025 magnetization 

 Free energy of the ion-electron system (eV)
  ---------------------------------------------------
  alpha Z        PSCENC =         0.57153965
  Ewald energy   TEWEN  =        43.77747250
  -Hartree energ DENC   =      -527.95370779
  -exchange      EXHF   =         0.00000000
  -V(xc)+E(xc)   XCENC  =        32.64250344
  PAW double counting   =      7935.65584857    -7931.80168617
  entropy T*S    EENTRO =        -0.00000000
  eigenvalues    EBANDS =      -147.10191439
  atomic energy  EATOM  =       579.32078282
  Solvation  Ediel_sol  =         0.00000000
  ---------------------------------------------------
  free energy    TOTEN  =       -14.88916137 eV

  energy without entropy =      -14.88916137  energy(sigma->0) =      -14.88916137


--------------------------------------------------------------------------------------------------------




 average (electrostatic) potential at core
  the test charge radii are     0.5770  0.5955
  (the norm of the test charge is              1.0000)
       1 -88.9793       2-122.2388
 
 
 
 E-fermi :  -7.8111     XC(G=0):  -1.1954     alpha+bet : -0.3665


 k-point     1 :       0.0000    0.0000    0.0000
  band No.  band energies     occupation 
      1     -28.5483      2.00000
      2     -13.7967      2.00000
      3     -11.2147      2.00000
      4     -11.2147      2.00000
      5      -8.7766      2.00000
      6      -1.9726      0.00000
      7      -1.9726      0.00000
      8      -0.2355      0.00000
      9       1.7157      0.00000
     10       1.9006      0.00000


--------------------------------------------------------------------------------------------------------


 soft charge-density along one line, spin component           1
         0         1         2         3         4         5         6         7         8         9
 total charge-density along one line
 
 pseudopotential strength for first ion, spin component:           1
 12.824  21.584   0.000   0.047   0.000   0.000   0.084   0.000
 21.584  36.326   0.000   0.079   0.000   0.000   0.141   0.000
  0.000   0.000  -3.227   0.000   0.000  -5.787   0.000   0.000
  0.047   0.079   0.000  -3.222   0.000   0.000  -5.779   0.000
  0.000   0.000   0.000   0.000  -3.227   0.000   0.000  -5.787
  0.000   0.000  -5.787   0.000   0.000 -10.358   0.000   0.000
  0.084   0.141   0.000  -5.779   0.000   0.000 -10.343   0.000
  0.000   0.000   0.000   0.000  -5.787   0.000   0.000 -10.358
 total augmentation occupancy for first ion, spin component:           1
  6.529  -2.258   0.000   5.976   0.000   0.000  -2.731  -0.000
 -2.258   1.028   0.000  -3.115  -0.000   0.000   1.304   0.000
  0.000   0.000   2.985   0.000   0.000  -0.944   0.000   0.000
  5.976  -3.115   0.000  11.690   0.000   0.000  -4.459   0.000
  0.000  -0.000   0.000   0.000   2.985   0.000   0.000  -0.944
  0.000   0.000  -0.944   0.000   0.000   0.299   0.000   0.000
 -2.731   1.304   0.000  -4.459   0.000   0.000   1.772   0.000
 -0.000   0.000   0.000   0.000  -0.944   0.000   0.000   0.299


------------------------ aborting loop because EDIFF is reached ----------------------------------------


    CHARGE:  cpu time    1.1761: real time    0.0399
    FORLOC:  cpu time    0.5243: real time    0.0179
    FORNL :  cpu time    0.2016: real time    0.0069
    STRESS:  cpu time    1.9830: real time    0.0677
    FORCOR:  cpu time    1.7517: real time    0.3358
    FORHAR:  cpu time    0.0751: real time    0.0751
    MIXING:  cpu time    0.1666: real time    0.0175
    OFIELD:  cpu time    0.0053: real time    0.0002

  FORCE on cell =-STRESS in cart. coord.  units (eV):
  Direction    XX          YY          ZZ          XY          YZ          ZX
  --------------------------------------------------------------------------------------
  Alpha Z     0.57154     0.57154     0.57154
  Ewald     -86.03377   -86.03377   215.84497    -0.00000     0.00000     0.00000
  Hartree   138.77460   138.77460   250.40452    -0.00000    -0.00000    -0.00000
  E(xc)     -45.65957   -45.65957   -44.86482    -0.00000    -0.00000    -0.00000
  Local    -252.29244  -252.29244  -649.27748    -0.00000    -0.00000    -0.00000
  n-local    -2.02452    -2.02452    -6.71033     0.00000     0.00000     0.00000
  augment     0.44561     0.44561     0.63460    -0.00000     0.00000    -0.00000
  Kinetic   244.79117   244.79117   228.46970    -0.00000     0.00000    -0.00000
  Fock        0.00000     0.00000     0.00000     0.00000     0.00000     0.00000
  -------------------------------------------------------------------------------------
  Total      -1.42738    -1.42738    -4.92731     0.00000    -0.00000     0.00000
  in kB      -4.46663    -4.46663   -15.41879     0.00000    -0.00000     0.00000
  external pressure =       -8.12 kB  Pullay stress =        0.00 kB


 VOLUME and BASIS-vectors are now :
 -----------------------------------------------------------------------------
  energy-cutoff  :      700.00
  volume of cell :      512.00
      direct lattice vectors                 reciprocal lattice vectors
     8.000000000  0.000000000  0.000000000     0.125000000  0.000000000  0.000000000
     0.000000000  8.000000000  0.000000000     0.000000000  0.125000000  0.000000000
     0.000000000  0.000000000  8.000000000     0.000000000  0.000000000  0.125000000

  length of vectors
     8.000000000  8.000000000  8.000000000     0.125000000  0.125000000  0.125000000


 FORCES acting on ions
    electron-ion (+dipol)            ewald-force                    non-local-force                 convergence-correction
 -----------------------------------------------------------------------------------------------
   -.849E-15 0.608E-14 0.227E+03   -.297E-16 0.394E-16 -.252E+03   -.258E-25 -.388E-25 0.280E+02   0.111E-13 0.432E-14 -.788E-05
   0.450E-14 0.367E-16 -.204E+03   0.666E-16 0.162E-16 0.252E+03   0.000E+00 0.000E+00 -.512E+02   0.251E-13 -.592E-14 0.424E-04
 -----------------------------------------------------------------------------------------------
   0.365E-14 0.612E-14 0.232E+02   0.369E-16 0.557E-16 0.000E+00   -.258E-25 -.388E-25 -.232E+02   0.362E-13 -.160E-14 0.346E-04
 
 
 POSITION                                       TOTAL-FORCE (eV/Angst)
 -----------------------------------------------------------------------------------
      0.00000      0.00000     -0.02000        -0.000000      0.000000      2.873165
      0.00000      0.00000      1.14300         0.000000      0.000000     -2.873165
 -----------------------------------------------------------------------------------
    total drift:                                0.000000      0.000000     -0.004976


--------------------------------------------------------------------------------------------------------



  FREE ENERGIE OF THE ION-ELECTRON SYSTEM (eV)
  ---------------------------------------------------
  free  energy   TOTEN  =       -14.88916137 eV

  energy  without entropy=      -14.88916137  energy(sigma->0) =      -14.88916137
 
 d Force =-0.2832857E-01[-0.115E+00, 0.583E-01]  d Energy =-0.3257599E-01 0.425E-02
 d Force = 0.1045376E+02[ 0.101E+02, 0.108E+02]  d Ewald  = 0.1044728E+02 0.648E-02


--------------------------------------------------------------------------------------------------------


    POTLOK:  cpu time    5.6007: real time    0.3140


--------------------------------------------------------------------------------------------------------


 stress matrix after NEB project (eV)
     -1.42738      0.00000      0.00000
      0.00000     -1.42738     -0.00000
      0.00000     -0.00000     -4.92731
  FORCES: max atom, RMS     2.873165    2.873165
  FORCE total and by dimension    4.063269    2.873165
  Stress total and by dimension    5.324769    4.927306
 Finite differences progress:
  Degree of freedom:   1/  2
  Displacement:        2/  2
  Total:               2/  4
  LATTYP: Found a simple cubic cell.
 ALAT       =     8.0000000000
  
  Lattice vectors:
  
 A1 = (   8.0000000000,   0.0000000000,   0.0000000000)
 A2 = (   0.0000000000,   8.0000000000,   0.0000000000)
 A3 = (   0.0000000000,   0.0000000000,   8.0000000000)


Analysis of symmetry for initial positions (statically):
=====================================================================
 Subroutine PRICEL returns:
 Original cell was already a primitive cell.
 

 Routine SETGRP: Setting up the symmetry group for a 
 simple cubic supercell.


 Subroutine GETGRP returns: Found  8 space group operations
 (whereof  8 operations were pure point group operations)
 out of a pool of 48 trial point group operations.


The static configuration has the point symmetry C_4v.


Analysis of symmetry for dynamics (positions and initial velocities):
=====================================================================
 Subroutine PRICEL returns:
 Original cell was already a primitive cell.
 

 Routine SETGRP: Setting up the symmetry group for a 
 simple cubic supercell.


 Subroutine GETGRP returns: Found  8 space group operations
 (whereof  8 operations were pure point group operations)
 out of a pool of 48 trial point group operations.


The dynamic configuration has the point symmetry C_4v.


Analysis of constrained symmetry for selective dynamics:
=====================================================================
 Subroutine PRICEL returns:
 Original cell was already a primitive cell.
 

 Routine SETGRP: Setting up the symmetry group for a 
 simple cubic supercell.


 Subroutine GETGRP returns: Found  8 space group operations
 (whereof  8 operations were pure point group operations)
 out of a pool of 48 trial point group operations.


The constrained configuration has the point symmetry C_4v.


 Subroutine INISYM returns: Found  8 space group operations
 (whereof  8 operations are pure point group operations),
 and found     1 'primitive' translations

 
 KPOINTS: Gamma-point only                        

Automatic generation of k-mesh.
Space group operators:
 irot       det(A)        alpha          n_x          n_y          n_z        tau_x        tau_y        tau_z
    1     1.000000     0.000000     1.000000     0.000000     0.000000     0.000000     0.000000     0.000000
    2     1.000000    90.000000     0.000000     0.000000    -1.000000     0.000000     0.000000     0.000000
    3     1.000000   180.000000     0.000000     0.000000     1.000000     0.000000     0.000000     0.000000
    4     1.000000    90.000000     0.000000     0.000000     1.000000     0.000000     0.000000     0.000000
    5    -1.000000   180.000000     1.000000     0.000000     0.000000     0.000000     0.000000     0.000000
    6    -1.000000   180.000000     0.707107     0.707107     0.000000     0.000000     0.000000     0.000000
    7    -1.000000   180.000000     0.000000     1.000000     0.000000     0.000000     0.000000     0.000000
    8    -1.000000   180.000000     0.707107    -0.707107     0.000000     0.000000     0.000000     0.000000
 
 Subroutine IBZKPT returns following result:
 ===========================================
 
 Found      1 irreducible k-points:
 
 Following reciprocal coordinates:
            Coordinates               Weight
  0.000000  0.000000  0.000000      1.000000
 
 Following cartesian coordinates:
            Coordinates               Weight
  0.000000  0.000000  0.000000      1.000000
 
 use seriel FFT for wavefunctions x direction half grid
    WAVPRE:  cpu time    0.0823: real time    0.0825
 FEWALD executed in parallel
    FEWALD:  cpu time    0.0003: real time    0.0003
    ORTHCH:  cpu time    0.4307: real time    0.0162
     LOOP+:  cpu time  150.7307: real time    7.8639


----------------------------------------- Iteration    4(   1)  ---------------------------------------


    POTLOK:  cpu time    5.6893: real time    0.3211
    SETDIJ:  cpu time    0.0017: real time    0.0017
     EDDAV:  cpu time    3.4391: real time    0.1307
       DOS:  cpu time    0.0033: real time    0.0001
    CHARGE:  cpu time    1.1819: real time    0.0384
    MIXING:  cpu time    0.2911: real time    0.0094
    --------------------------------------------
      LOOP:  cpu time   10.6431: real time    0.5027

 eigenvalue-minimisations  :    20
 total energy-change (2. order) : 0.4599648E-02  (-0.6312971E+00)
 number of electron      10.0000003 magnetization 
 augmentation part       -0.0126047 magnetization 

 Broyden mixing:
  rms(total) = 0.18418E+00    rms(broyden)= 0.18416E+00
  rms(prec ) = 0.18561E+00
  weight for this iteration     100.00

 Free energy of the ion-electron system (eV)
  ---------------------------------------------------
  alpha Z        PSCENC =         0.57153965
  Ewald energy   TEWEN  =        43.77747250
  -Hartree energ DENC   =      -527.86005525
  -exchange      EXHF   =         0.00000000
  -V(xc)+E(xc)   XCENC  =        32.63325240
  PAW double counting   =      7935.69262208    -7931.83845828
  entropy T*S    EENTRO =        -0.00000000
  eigenvalues    EBANDS =      -147.18171729
  atomic energy  EATOM  =       579.32078282
  Solvation  Ediel_sol  =         0.00000000
  ---------------------------------------------------
  free energy    TOTEN  =       -14.88456138 eV

  energy without entropy =      -14.88456138  energy(sigma->0) =      -14.88456138


--------------------------------------------------------------------------------------------------------




----------------------------------------- Iteration    4(   2)  ---------------------------------------


    POTLOK:  cpu time    4.1750: real time    0.3063
    SETDIJ:  cpu time    0.0016: real time    0.0016
     EDDAV:  cpu time    3.6125: real time    0.1315
       DOS:  cpu time    0.0033: real time    0.0001
    CHARGE:  cpu time    1.1827: real time    0.0374
    MIXING:  cpu time    0.2646: real time    0.0084
    --------------------------------------------
      LOOP:  cpu time    9.2917: real time    0.4870

 eigenvalue-minimisations  :    22
 total energy-change (2. order) :-0.4790338E-02  (-0.5416383E-02)
 number of electron      10.0000003 magnetization 
 augmentation part       -0.0120977 magnetization 

 Broyden mixing:
  rms(total) = 0.83806E-01    rms(broyden)= 0.83797E-01
  rms(prec ) = 0.85744E-01
  weight for this iteration     100.00

 eigenvalues of (default mixing * dielectric matrix)
  average eigenvalue GAMMA=   0.7032
  0.7032

 Free energy of the ion-electron system (eV)
  ---------------------------------------------------
  alpha Z        PSCENC =         0.57153965
  Ewald energy   TEWEN  =        43.77747250
  -Hartree energ DENC   =      -527.80044256
  -exchange      EXHF   =         0.00000000
  -V(xc)+E(xc)   XCENC  =        32.63106005
  PAW double counting   =      7735.49508347    -7731.64011445
  entropy T*S    EENTRO =        -0.00000000
  eigenvalues    EBANDS =      -147.24473320
  atomic energy  EATOM  =       579.32078282
  Solvation  Ediel_sol  =         0.00000000
  ---------------------------------------------------
  free energy    TOTEN  =       -14.88935172 eV

  energy without entropy =      -14.88935172  energy(sigma->0) =      -14.88935172


--------------------------------------------------------------------------------------------------------




----------------------------------------- Iteration    4(   3)  ---------------------------------------


    POTLOK:  cpu time    4.3105: real time    0.3166
    SETDIJ:  cpu time    0.0015: real time    0.0015
     EDDAV:  cpu time    3.9924: real time    0.1450
       DOS:  cpu time    0.0033: real time    0.0001
    CHARGE:  cpu time    1.1947: real time    0.0378
    MIXING:  cpu time    0.2922: real time    0.0094
    --------------------------------------------
      LOOP:  cpu time    9.8459: real time    0.5121

 eigenvalue-minimisations  :    20
 total energy-change (2. order) : 0.2351526E-03  (-0.2539268E-03)
 number of electron      10.0000003 magnetization 
 augmentation part       -0.0125106 magnetization 

 Broyden mixing:
  rms(total) = 0.44719E-01    rms(broyden)= 0.44717E-01
  rms(prec ) = 0.45893E-01
  weight for this iteration     100.00

 eigenvalues of (default mixing * dielectric matrix)
  average eigenvalue GAMMA=   1.0171
  1.0171  1.0171

 Free energy of the ion-electron system (eV)
  ---------------------------------------------------
  alpha Z        PSCENC =         0.57153965
  Ewald energy   TEWEN  =        43.77747250
  -Hartree energ DENC   =      -527.95028380
  -exchange      EXHF   =         0.00000000
  -V(xc)+E(xc)   XCENC  =        32.64016162
  PAW double counting   =      7789.99394536    -7786.14068933
  entropy T*S    EENTRO =        -0.00000000
  eigenvalues    EBANDS =      -147.10204538
  atomic energy  EATOM  =       579.32078282
  Solvation  Ediel_sol  =         0.00000000
  ---------------------------------------------------
  free energy    TOTEN  =       -14.88911656 eV

  energy without entropy =      -14.88911656  energy(sigma->0) =      -14.88911656


--------------------------------------------------------------------------------------------------------




----------------------------------------- Iteration    4(   4)  ---------------------------------------


    POTLOK:  cpu time    4.5176: real time    0.3075
    SETDIJ:  cpu time    0.0015: real time    0.0015
     EDDAV:  cpu time   11.1568: real time    0.3779
       DOS:  cpu time    0.0033: real time    0.0001
    CHARGE:  cpu time    1.2522: real time    0.0408
    MIXING:  cpu time    0.3005: real time    0.0098
    --------------------------------------------
      LOOP:  cpu time   17.2821: real time    0.7393

 eigenvalue-minimisations  :    22
 total energy-change (2. order) : 0.6193355E-05  (-0.1114060E-04)
 number of electron      10.0000003 magnetization 
 augmentation part       -0.0125045 magnetization 

 Broyden mixing:
  rms(total) = 0.30382E-01    rms(broyden)= 0.30382E-01
  rms(prec ) = 0.30917E-01
  weight for this iteration     100.00

 eigenvalues of (default mixing * dielectric matrix)
  average eigenvalue GAMMA=   1.4097
  0.7723  1.1880  2.2689

 Free energy of the ion-electron system (eV)
  ---------------------------------------------------
  alpha Z        PSCENC =         0.57153965
  Ewald energy   TEWEN  =        43.77747250
  -Hartree energ DENC   =      -527.92942923
  -exchange      EXHF   =         0.00000000
  -V(xc)+E(xc)   XCENC  =        32.64032485
  PAW double counting   =      7844.39478584    -7840.54093443
  entropy T*S    EENTRO =        -0.00000000
  eigenvalues    EBANDS =      -147.12365236
  atomic energy  EATOM  =       579.32078282
  Solvation  Ediel_sol  =         0.00000000
  ---------------------------------------------------
  free energy    TOTEN  =       -14.88911037 eV

  energy without entropy =      -14.88911037  energy(sigma->0) =      -14.88911037


--------------------------------------------------------------------------------------------------------




----------------------------------------- Iteration    4(   5)  ---------------------------------------


    POTLOK:  cpu time    4.2517: real time    0.3079
    SETDIJ:  cpu time    0.0016: real time    0.0016
     EDDAV:  cpu time    3.4787: real time    0.1353
       DOS:  cpu time    0.0034: real time    0.0001
    CHARGE:  cpu time    1.8404: real time    0.0620
    MIXING:  cpu time    0.6461: real time    0.0221
    --------------------------------------------
      LOOP:  cpu time   10.2679: real time    0.5307

 eigenvalue-minimisations  :    24
 total energy-change (2. order) :-0.4225803E-05  (-0.8204105E-05)
 number of electron      10.0000003 magnetization 
 augmentation part       -0.0125924 magnetization 

 Broyden mixing:
  rms(total) = 0.10509E-01    rms(broyden)= 0.10509E-01
  rms(prec ) = 0.10532E-01
  weight for this iteration     100.00

 eigenvalues of (default mixing * dielectric matrix)
  average eigenvalue GAMMA=   1.3215
  2.3362  0.8264  0.8264  1.2969

 Free energy of the ion-electron system (eV)
  ---------------------------------------------------
  alpha Z        PSCENC =         0.57153965
  Ewald energy   TEWEN  =        43.77747250
  -Hartree energ DENC   =      -527.94004880
  -exchange      EXHF   =         0.00000000
  -V(xc)+E(xc)   XCENC  =        32.64205491
  PAW double counting   =      7912.81884828    -7908.96474401
  entropy T*S    EENTRO =        -0.00000000
  eigenvalues    EBANDS =      -147.11501994
  atomic energy  EATOM  =       579.32078282
  Solvation  Ediel_sol  =         0.00000000
  ---------------------------------------------------
  free energy    TOTEN  =       -14.88911460 eV

  energy without entropy =      -14.88911460  energy(sigma->0) =      -14.88911460


--------------------------------------------------------------------------------------------------------




----------------------------------------- Iteration    4(   6)  ---------------------------------------


    POTLOK:  cpu time    3.2862: real time    0.3314
    SETDIJ:  cpu time    0.0016: real time    0.0016
     EDDAV:  cpu time    4.2688: real time    0.1666
       DOS:  cpu time    0.0029: real time    0.0001
    CHARGE:  cpu time    1.0969: real time    0.0410
    MIXING:  cpu time    0.3176: real time    0.0115
    --------------------------------------------
      LOOP:  cpu time    9.0863: real time    0.5561

 eigenvalue-minimisations  :    22
 total energy-change (2. order) :-0.1395719E-05  (-0.2494542E-06)
 number of electron      10.0000003 magnetization 
 augmentation part       -0.0125800 magnetization 

 Broyden mixing:
  rms(total) = 0.66560E-02    rms(broyden)= 0.66559E-02
  rms(prec ) = 0.66813E-02
  weight for this iteration     100.00

 eigenvalues of (default mixing * dielectric matrix)
  average eigenvalue GAMMA=   1.5381
  2.4566  2.4566  1.0743  0.8877  0.8152

 Free energy of the ion-electron system (eV)
  ---------------------------------------------------
  alpha Z        PSCENC =         0.57153965
  Ewald energy   TEWEN  =        43.77747250
  -Hartree energ DENC   =      -527.94358566
  -exchange      EXHF   =         0.00000000
  -V(xc)+E(xc)   XCENC  =        32.64217585
  PAW double counting   =      7920.61942354    -7916.76526876
  entropy T*S    EENTRO =        -0.00000000
  eigenvalues    EBANDS =      -147.11165593
  atomic energy  EATOM  =       579.32078282
  Solvation  Ediel_sol  =         0.00000000
  ---------------------------------------------------
  free energy    TOTEN  =       -14.88911599 eV

  energy without entropy =      -14.88911599  energy(sigma->0) =      -14.88911599


--------------------------------------------------------------------------------------------------------




----------------------------------------- Iteration    4(   7)  ---------------------------------------


    POTLOK:  cpu time    4.0511: real time    0.3136
    SETDIJ:  cpu time    0.0016: real time    0.0016
     EDDAV:  cpu time    4.2230: real time    0.1648
       DOS:  cpu time    0.0031: real time    0.0001
    CHARGE:  cpu time    1.2243: real time    0.0406
    MIXING:  cpu time    0.3964: real time    0.0131
    --------------------------------------------
      LOOP:  cpu time    9.9490: real time    0.5354

 eigenvalue-minimisations  :    22
 total energy-change (2. order) :-0.1475901E-05  (-0.3791923E-06)
 number of electron      10.0000003 magnetization 
 augmentation part       -0.0125991 magnetization 

 Broyden mixing:
  rms(total) = 0.10435E-02    rms(broyden)= 0.10434E-02
  rms(prec ) = 0.10466E-02
  weight for this iteration     100.00

 eigenvalues of (default mixing * dielectric matrix)
  average eigenvalue GAMMA=   1.5678
  3.0030  2.4636  1.2785  1.0130  0.8244  0.8244

 Free energy of the ion-electron system (eV)
  ---------------------------------------------------
  alpha Z        PSCENC =         0.57153965
  Ewald energy   TEWEN  =        43.77747250
  -Hartree energ DENC   =      -527.95496653
  -exchange      EXHF   =         0.00000000
  -V(xc)+E(xc)   XCENC  =        32.64262942
  PAW double counting   =      7932.26693237    -7928.41281771
  entropy T*S    EENTRO =        -0.00000000
  eigenvalues    EBANDS =      -147.10068999
  atomic energy  EATOM  =       579.32078282
  Solvation  Ediel_sol  =         0.00000000
  ---------------------------------------------------
  free energy    TOTEN  =       -14.88911747 eV

  energy without entropy =      -14.88911747  energy(sigma->0) =      -14.88911747


--------------------------------------------------------------------------------------------------------




----------------------------------------- Iteration    4(   8)  ---------------------------------------


    POTLOK:  cpu time    4.1884: real time    0.3109
    SETDIJ:  cpu time    0.0016: real time    0.0016
     EDDAV:  cpu time    3.5102: real time    0.1338
       DOS:  cpu time    0.0031: real time    0.0001
    --------------------------------------------
      LOOP:  cpu time    7.7442: real time    0.4478

 eigenvalue-minimisations  :    22
 total energy-change (2. order) :-0.7333649E-06  (-0.1664647E-07)
 number of electron      10.0000003 magnetization 
 augmentation part       -0.0125991 magnetization 

 Free energy of the ion-electron system (eV)
  ---------------------------------------------------
  alpha Z        PSCENC =         0.57153965
  Ewald energy   TEWEN  =        43.77747250
  -Hartree energ DENC   =      -527.95429401
  -exchange      EXHF   =         0.00000000
  -V(xc)+E(xc)   XCENC  =        32.64258395
  PAW double counting   =      7934.02602344    -7930.17188666
  entropy T*S    EENTRO =        -0.00000000
  eigenvalues    EBANDS =      -147.10133989
  atomic energy  EATOM  =       579.32078282
  Solvation  Ediel_sol  =         0.00000000
  ---------------------------------------------------
  free energy    TOTEN  =       -14.88911820 eV

  energy without entropy =      -14.88911820  energy(sigma->0) =      -14.88911820


--------------------------------------------------------------------------------------------------------




 average (electrostatic) potential at core
  the test charge radii are     0.5770  0.5955
  (the norm of the test charge is              1.0000)
       1 -88.9791       2-122.2388
 
 
 
 E-fermi :  -7.8116     XC(G=0):  -1.1956     alpha+bet : -0.3665


 k-point     1 :       0.0000    0.0000    0.0000
  band No.  band energies     occupation 
      1     -28.5482      2.00000
      2     -13.7967      2.00000
      3     -11.2146      2.00000
      4     -11.2146      2.00000
      5      -8.7766      2.00000
      6      -1.9725      0.00000
      7      -1.9725      0.00000
      8      -0.2357      0.00000
      9       1.7175      0.00000
     10       1.8999      0.00000


--------------------------------------------------------------------------------------------------------


 soft charge-density along one line, spin component           1
         0         1         2         3         4         5         6         7         8         9
 total charge-density along one line
 
 pseudopotential strength for first ion, spin component:           1
 12.824  21.584   0.000   0.047   0.000   0.000   0.084   0.000
 21.584  36.326   0.000   0.079   0.000   0.000   0.141   0.000
  0.000   0.000  -3.227   0.000  -0.000  -5.787   0.000  -0.000
  0.047   0.079   0.000  -3.222   0.000   0.000  -5.779   0.000
  0.000   0.000  -0.000   0.000  -3.227  -0.000   0.000  -5.787
  0.000   0.000  -5.787   0.000  -0.000 -10.357   0.000  -0.000
  0.084   0.141   0.000  -5.779   0.000   0.000 -10.343   0.000
  0.000   0.000  -0.000   0.000  -5.787  -0.000   0.000 -10.357
 total augmentation occupancy for first ion, spin component:           1
  6.529  -2.258   0.000   5.975   0.000   0.000  -2.731   0.000
 -2.258   1.028   0.000  -3.114   0.000   0.000   1.304   0.000
  0.000   0.000   2.986   0.000   0.000  -0.944   0.000   0.000
  5.975  -3.114   0.000  11.690  -0.000   0.000  -4.458  -0.000
  0.000   0.000   0.000  -0.000   2.986   0.000  -0.000  -0.944
  0.000   0.000  -0.944   0.000   0.000   0.299   0.000   0.000
 -2.731   1.304   0.000  -4.458  -0.000   0.000   1.771  -0.000
  0.000   0.000   0.000  -0.000  -0.944   0.000  -0.000   0.299


------------------------ aborting loop because EDIFF is reached ----------------------------------------


    CHARGE:  cpu time    1.1149: real time    0.0374
    FORLOC:  cpu time    0.5246: real time    0.0177
    FORNL :  cpu time    0.2045: real time    0.0069
    STRESS:  cpu time    1.8930: real time    0.0643
    FORCOR:  cpu time    1.9608: real time    0.3264
    FORHAR:  cpu time    0.0741: real time    0.0741
    MIXING:  cpu time    0.0117: real time    0.0117
    OFIELD:  cpu time    0.0001: real time    0.0001

  FORCE on cell =-STRESS in cart. coord.  units (eV):
  Direction    XX          YY          ZZ          XY          YZ          ZX
  --------------------------------------------------------------------------------------
  Alpha Z     0.57154     0.57154     0.57154
  Ewald     -86.03377   -86.03377   215.84497    -0.00000     0.00000     0.00000
  Hartree   138.77458   138.77458   250.40460    -0.00000    -0.00000    -0.00000
  E(xc)     -45.65965   -45.65965   -44.86467    -0.00000    -0.00000    -0.00000
  Local    -252.29221  -252.29221  -649.27644     0.00000     0.00000    -0.00000
  n-local    -2.02455    -2.02455    -6.71020     0.00000     0.00000     0.00000
  augment     0.44571     0.44571     0.63452    -0.00000    -0.00000     0.00000
  Kinetic   244.79104   244.79103   228.46994    -0.00000    -0.00000     0.00000
  Fock        0.00000     0.00000     0.00000     0.00000     0.00000     0.00000
  -------------------------------------------------------------------------------------
  Total      -1.42732    -1.42732    -4.92574     0.00000    -0.00000     0.00000
  in kB      -4.46646    -4.46646   -15.41390     0.00000    -0.00000     0.00000
  external pressure =       -8.12 kB  Pullay stress =        0.00 kB


 VOLUME and BASIS-vectors are now :
 -----------------------------------------------------------------------------
  energy-cutoff  :      700.00
  volume of cell :      512.00
      direct lattice vectors                 reciprocal lattice vectors
     8.000000000  0.000000000  0.000000000     0.125000000  0.000000000  0.000000000
     0.000000000  8.000000000  0.000000000     0.000000000  0.125000000  0.000000000
     0.000000000  0.000000000  8.000000000     0.000000000  0.000000000  0.125000000

  length of vectors
     8.000000000  8.000000000  8.000000000     0.125000000  0.125000000  0.125000000


 FORCES acting on ions
    electron-ion (+dipol)            ewald-force                    non-local-force                 convergence-correction
 -----------------------------------------------------------------------------------------------
   0.330E-14 0.478E-15 0.227E+03   -.291E-16 0.383E-16 -.252E+03   0.000E+00 -.129E-25 0.280E+02   0.681E-14 0.117E-13 0.564E-03
   0.207E-16 0.139E-14 -.204E+03   0.659E-16 0.173E-16 0.252E+03   0.207E-24 0.310E-24 -.512E+02   -.827E-14 0.345E-14 -.244E-02
 -----------------------------------------------------------------------------------------------
   0.332E-14 0.187E-14 0.232E+02   0.369E-16 0.557E-16 0.000E+00   0.207E-24 0.297E-24 -.232E+02   -.146E-14 0.152E-13 -.188E-02
 
 
 POSITION                                       TOTAL-FORCE (eV/Angst)
 -----------------------------------------------------------------------------------
      0.00000      0.00000      0.00000        -0.000000      0.000000      2.872760
      0.00000      0.00000      1.16300         0.000000     -0.000000     -2.872760
 -----------------------------------------------------------------------------------
    total drift:                                0.000000      0.000000      0.001004


--------------------------------------------------------------------------------------------------------



  FREE ENERGIE OF THE ION-ELECTRON SYSTEM (eV)
  ---------------------------------------------------
  free  energy   TOTEN  =       -14.88911820 eV

  energy  without entropy=      -14.88911820  energy(sigma->0) =      -14.88911820
 
 d Force = 0.0000000E+00[ 0.000E+00, 0.000E+00]  d Energy =-0.4317303E-04 0.432E-04
 d Force = 0.0000000E+00[ 0.000E+00, 0.000E+00]  d Ewald  = 0.0000000E+00 0.000E+00


--------------------------------------------------------------------------------------------------------


    POTLOK:  cpu time    0.3085: real time    0.3087


--------------------------------------------------------------------------------------------------------


 stress matrix after NEB project (eV)
     -1.42732      0.00000      0.00000
      0.00000     -1.42732      0.00000
      0.00000     -0.00000     -4.92574
  FORCES: max atom, RMS     2.872760    2.872760
  FORCE total and by dimension    4.062696    2.872760
  Stress total and by dimension    5.323294    4.925744
 Finite differences progress:
  Degree of freedom:   2/  2
  Displacement:        1/  2
  Total:               3/  4
  LATTYP: Found a simple cubic cell.
 ALAT       =     8.0000000000
  
  Lattice vectors:
  
 A1 = (   8.0000000000,   0.0000000000,   0.0000000000)
 A2 = (   0.0000000000,   8.0000000000,   0.0000000000)
 A3 = (   0.0000000000,   0.0000000000,   8.0000000000)


Analysis of symmetry for initial positions (statically):
=====================================================================
 Subroutine PRICEL returns:
 Original cell was already a primitive cell.
 

 Routine SETGRP: Setting up the symmetry group for a 
 simple cubic supercell.


 Subroutine GETGRP returns: Found  8 space group operations
 (whereof  8 operations were pure point group operations)
 out of a pool of 48 trial point group operations.


The static configuration has the point symmetry C_4v.


Analysis of symmetry for dynamics (positions and initial velocities):
=====================================================================
 Subroutine PRICEL returns:
 Original cell was already a primitive cell.
 

 Routine SETGRP: Setting up the symmetry group for a 
 simple cubic supercell.


 Subroutine GETGRP returns: Found  8 space group operations
 (whereof  8 operations were pure point group operations)
 out of a pool of 48 trial point group operations.


The dynamic configuration has the point symmetry C_4v.


Analysis of constrained symmetry for selective dynamics:
=====================================================================
 Subroutine PRICEL returns:
 Original cell was already a primitive cell.
 

 Routine SETGRP: Setting up the symmetry group for a 
 simple cubic supercell.


 Subroutine GETGRP returns: Found  8 space group operations
 (whereof  8 operations were pure point group operations)
 out of a pool of 48 trial point group operations.


The constrained configuration has the point symmetry C_4v.


 Subroutine INISYM returns: Found  8 space group operations
 (whereof  8 operations are pure point group operations),
 and found     1 'primitive' translations

 
 KPOINTS: Gamma-point only                        

Automatic generation of k-mesh.
Space group operators:
 irot       det(A)        alpha          n_x          n_y          n_z        tau_x        tau_y        tau_z
    1     1.000000     0.000000     1.000000     0.000000     0.000000     0.000000     0.000000     0.000000
    2     1.000000    90.000000     0.000000     0.000000    -1.000000     0.000000     0.000000     0.000000
    3     1.000000   180.000000     0.000000     0.000000     1.000000     0.000000     0.000000     0.000000
    4     1.000000    90.000000     0.000000     0.000000     1.000000     0.000000     0.000000     0.000000
    5    -1.000000   180.000000     1.000000     0.000000     0.000000     0.000000     0.000000     0.000000
    6    -1.000000   180.000000     0.707107     0.707107     0.000000     0.000000     0.000000     0.000000
    7    -1.000000   180.000000     0.000000     1.000000     0.000000     0.000000     0.000000     0.000000
    8    -1.000000   180.000000     0.707107    -0.707107     0.000000     0.000000     0.000000     0.000000
 
 Subroutine IBZKPT returns following result:
 ===========================================
 
 Found      1 irreducible k-points:
 
 Following reciprocal coordinates:
            Coordinates               Weight
  0.000000  0.000000  0.000000      1.000000
 
 Following cartesian coordinates:
            Coordinates               Weight
  0.000000  0.000000  0.000000      1.000000
 
 use seriel FFT for wavefunctions x direction half grid
    WAVPRE:  cpu time    0.0823: real time    0.0823
 FEWALD executed in parallel
    FEWALD:  cpu time    0.0006: real time    0.0006
    ORTHCH:  cpu time    0.2978: real time    0.0123
     LOOP+:  cpu time   90.7582: real time    5.3027


----------------------------------------- Iteration    5(   1)  ---------------------------------------


    POTLOK:  cpu time    5.3306: real time    0.3165
    SETDIJ:  cpu time    0.0016: real time    0.0016
     EDDAV:  cpu time    4.2882: real time    0.1801
       DOS:  cpu time    0.0026: real time    0.0001
    CHARGE:  cpu time    1.0560: real time    0.0382
    MIXING:  cpu time    0.2360: real time    0.0084
    --------------------------------------------
      LOOP:  cpu time   10.9501: real time    0.5462

 eigenvalue-minimisations  :    20
 total energy-change (2. order) :-0.2974115E-01  (-0.2273754E+01)
 number of electron      10.0000003 magnetization 
 augmentation part       -0.0104128 magnetization 

 Broyden mixing:
  rms(total) = 0.48628E+00    rms(broyden)= 0.48622E+00
  rms(prec ) = 0.49020E+00
  weight for this iteration     100.00

 Free energy of the ion-electron system (eV)
  ---------------------------------------------------
  alpha Z        PSCENC =         0.57153965
  Ewald energy   TEWEN  =        54.22475701
  -Hartree energ DENC   =      -534.18145789
  -exchange      EXHF   =         0.00000000
  -V(xc)+E(xc)   XCENC  =        32.83622353
  PAW double counting   =      7933.96937048    -7930.11522756
  entropy T*S    EENTRO =        -0.00000000
  eigenvalues    EBANDS =      -151.54484665
  atomic energy  EATOM  =       579.32078282
  Solvation  Ediel_sol  =         0.00000000
  ---------------------------------------------------
  free energy    TOTEN  =       -14.91885861 eV

  energy without entropy =      -14.91885861  energy(sigma->0) =      -14.91885861


--------------------------------------------------------------------------------------------------------




----------------------------------------- Iteration    5(   2)  ---------------------------------------


    POTLOK:  cpu time    4.1368: real time    0.3070
    SETDIJ:  cpu time    0.0016: real time    0.0016
     EDDAV:  cpu time    7.7068: real time    0.2759
       DOS:  cpu time    0.0030: real time    0.0001
    CHARGE:  cpu time    1.1099: real time    0.0372
    MIXING:  cpu time    0.2380: real time    0.0080
    --------------------------------------------
      LOOP:  cpu time   13.2416: real time    0.6313

 eigenvalue-minimisations  :    20
 total energy-change (2. order) :-0.7418775E-02  (-0.1912037E-01)
 number of electron      10.0000003 magnetization 
 augmentation part       -0.0067124 magnetization 

 Broyden mixing:
  rms(total) = 0.11700E+00    rms(broyden)= 0.11699E+00
  rms(prec ) = 0.12329E+00
  weight for this iteration     100.00

 eigenvalues of (default mixing * dielectric matrix)
  average eigenvalue GAMMA=   1.1581
  1.1581

 Free energy of the ion-electron system (eV)
  ---------------------------------------------------
  alpha Z        PSCENC =         0.57153965
  Ewald energy   TEWEN  =        54.22475701
  -Hartree energ DENC   =      -534.83165658
  -exchange      EXHF   =         0.00000000
  -V(xc)+E(xc)   XCENC  =        32.86976307
  PAW double counting   =      8628.32882561    -8624.49624187
  entropy T*S    EENTRO =        -0.00000000
  eigenvalues    EBANDS =      -150.91404710
  atomic energy  EATOM  =       579.32078282
  Solvation  Ediel_sol  =         0.00000000
  ---------------------------------------------------
  free energy    TOTEN  =       -14.92627739 eV

  energy without entropy =      -14.92627739  energy(sigma->0) =      -14.92627739


--------------------------------------------------------------------------------------------------------




----------------------------------------- Iteration    5(   3)  ---------------------------------------


    POTLOK:  cpu time    4.2376: real time    0.3134
    SETDIJ:  cpu time    0.0017: real time    0.0017
     EDDAV:  cpu time    7.1715: real time    0.2633
       DOS:  cpu time    0.0030: real time    0.0001
    CHARGE:  cpu time    1.1399: real time    0.0397
    MIXING:  cpu time    0.2774: real time    0.0096
    --------------------------------------------
      LOOP:  cpu time   12.8800: real time    0.6296

 eigenvalue-minimisations  :    40
 total energy-change (2. order) : 0.4436572E-02  (-0.9493793E-03)
 number of electron      10.0000003 magnetization 
 augmentation part       -0.0074682 magnetization 

 Broyden mixing:
  rms(total) = 0.61785E-01    rms(broyden)= 0.61782E-01
  rms(prec ) = 0.63822E-01
  weight for this iteration     100.00

 eigenvalues of (default mixing * dielectric matrix)
  average eigenvalue GAMMA=   1.4954
  1.1170  1.8737

 Free energy of the ion-electron system (eV)
  ---------------------------------------------------
  alpha Z        PSCENC =         0.57153965
  Ewald energy   TEWEN  =        54.22475701
  -Hartree energ DENC   =      -535.92654014
  -exchange      EXHF   =         0.00000000
  -V(xc)+E(xc)   XCENC  =        32.92400373
  PAW double counting   =      8878.00444576    -8874.19647862
  entropy T*S    EENTRO =        -0.00000000
  eigenvalues    EBANDS =      -149.84435103
  atomic energy  EATOM  =       579.32078282
  Solvation  Ediel_sol  =         0.00000000
  ---------------------------------------------------
  free energy    TOTEN  =       -14.92184082 eV

  energy without entropy =      -14.92184082  energy(sigma->0) =      -14.92184082


--------------------------------------------------------------------------------------------------------




----------------------------------------- Iteration    5(   4)  ---------------------------------------


    POTLOK:  cpu time    4.1739: real time    0.3014
    SETDIJ:  cpu time    0.0016: real time    0.0016
     EDDAV:  cpu time    4.3896: real time    0.1642
       DOS:  cpu time    0.0031: real time    0.0001
    CHARGE:  cpu time    1.0746: real time    0.0364
    MIXING:  cpu time    0.2745: real time    0.0092
    --------------------------------------------
      LOOP:  cpu time    9.9661: real time    0.5146

 eigenvalue-minimisations  :    24
 total energy-change (2. order) : 0.4304321E-03  (-0.3695933E-03)
 number of electron      10.0000003 magnetization 
 augmentation part       -0.0073991 magnetization 

 Broyden mixing:
  rms(total) = 0.28507E-01    rms(broyden)= 0.28507E-01
  rms(prec ) = 0.28947E-01
  weight for this iteration     100.00

 eigenvalues of (default mixing * dielectric matrix)
  average eigenvalue GAMMA=   1.6801
  2.7828  0.9631  1.2943

 Free energy of the ion-electron system (eV)
  ---------------------------------------------------
  alpha Z        PSCENC =         0.57153965
  Ewald energy   TEWEN  =        54.22475701
  -Hartree energ DENC   =      -536.37233556
  -exchange      EXHF   =         0.00000000
  -V(xc)+E(xc)   XCENC  =        32.94528851
  PAW double counting   =      9068.93731333    -9065.14101617
  entropy T*S    EENTRO =        -0.00000000
  eigenvalues    EBANDS =      -149.40773997
  atomic energy  EATOM  =       579.32078282
  Solvation  Ediel_sol  =         0.00000000
  ---------------------------------------------------
  free energy    TOTEN  =       -14.92141039 eV

  energy without entropy =      -14.92141039  energy(sigma->0) =      -14.92141039


--------------------------------------------------------------------------------------------------------




----------------------------------------- Iteration    5(   5)  ---------------------------------------


    POTLOK:  cpu time    4.3800: real time    0.2974
    SETDIJ:  cpu time    0.0016: real time    0.0016
     EDDAV:  cpu time    8.9439: real time    0.3199
       DOS:  cpu time    0.0031: real time    0.0001
    CHARGE:  cpu time    1.1363: real time    0.0381
    MIXING:  cpu time    0.3171: real time    0.0107
    --------------------------------------------
      LOOP:  cpu time   14.8292: real time    0.6694

 eigenvalue-minimisations  :    22
 total energy-change (2. order) :-0.1091136E-03  (-0.5151502E-04)
 number of electron      10.0000003 magnetization 
 augmentation part       -0.0077234 magnetization 

 Broyden mixing:
  rms(total) = 0.10460E-01    rms(broyden)= 0.10459E-01
  rms(prec ) = 0.11097E-01
  weight for this iteration     100.00

 eigenvalues of (default mixing * dielectric matrix)
  average eigenvalue GAMMA=   1.5438
  2.9309  1.2198  1.2198  0.8047

 Free energy of the ion-electron system (eV)
  ---------------------------------------------------
  alpha Z        PSCENC =         0.57153965
  Ewald energy   TEWEN  =        54.22475701
  -Hartree energ DENC   =      -536.48669507
  -exchange      EXHF   =         0.00000000
  -V(xc)+E(xc)   XCENC  =        32.95072021
  PAW double counting   =      9170.25170061    -9166.45859283
  entropy T*S    EENTRO =        -0.00000000
  eigenvalues    EBANDS =      -149.29573190
  atomic energy  EATOM  =       579.32078282
  Solvation  Ediel_sol  =         0.00000000
  ---------------------------------------------------
  free energy    TOTEN  =       -14.92151950 eV

  energy without entropy =      -14.92151950  energy(sigma->0) =      -14.92151950


--------------------------------------------------------------------------------------------------------




----------------------------------------- Iteration    5(   6)  ---------------------------------------


    POTLOK:  cpu time    4.1551: real time    0.3013
    SETDIJ:  cpu time    0.0015: real time    0.0015
     EDDAV:  cpu time    3.8626: real time    0.1460
       DOS:  cpu time    0.0033: real time    0.0001
    CHARGE:  cpu time    1.0989: real time    0.0369
    MIXING:  cpu time    0.3171: real time    0.0106
    --------------------------------------------
      LOOP:  cpu time    9.4861: real time    0.4980

 eigenvalue-minimisations  :    24
 total energy-change (2. order) :-0.2698627E-04  (-0.1213647E-04)
 number of electron      10.0000003 magnetization 
 augmentation part       -0.0076145 magnetization 

 Broyden mixing:
  rms(total) = 0.35208E-02    rms(broyden)= 0.35205E-02
  rms(prec ) = 0.38338E-02
  weight for this iteration     100.00

 eigenvalues of (default mixing * dielectric matrix)
  average eigenvalue GAMMA=   1.4793
  2.5429  1.5834  1.4540  0.9912  0.8249

 Free energy of the ion-electron system (eV)
  ---------------------------------------------------
  alpha Z        PSCENC =         0.57153965
  Ewald energy   TEWEN  =        54.22475701
  -Hartree energ DENC   =      -536.40203216
  -exchange      EXHF   =         0.00000000
  -V(xc)+E(xc)   XCENC  =        32.94631434
  PAW double counting   =      9197.80207221    -9194.00738003
  entropy T*S    EENTRO =        -0.00000000
  eigenvalues    EBANDS =      -149.37760033
  atomic energy  EATOM  =       579.32078282
  Solvation  Ediel_sol  =         0.00000000
  ---------------------------------------------------
  free energy    TOTEN  =       -14.92154649 eV

  energy without entropy =      -14.92154649  energy(sigma->0) =      -14.92154649


--------------------------------------------------------------------------------------------------------




----------------------------------------- Iteration    5(   7)  ---------------------------------------


    POTLOK:  cpu time    4.3456: real time    0.2985
    SETDIJ:  cpu time    0.0015: real time    0.0015
     EDDAV:  cpu time    3.1667: real time    0.1216
       DOS:  cpu time    0.0029: real time    0.0001
    CHARGE:  cpu time    1.1169: real time    0.0378
    MIXING:  cpu time    0.3334: real time    0.0113
    --------------------------------------------
      LOOP:  cpu time    9.0182: real time    0.4726

 eigenvalue-minimisations  :    24
 total energy-change (2. order) :-0.5389617E-04  (-0.2137248E-05)
 number of electron      10.0000003 magnetization 
 augmentation part       -0.0076054 magnetization 

 Broyden mixing:
  rms(total) = 0.17780E-02    rms(broyden)= 0.17779E-02
  rms(prec ) = 0.20038E-02
  weight for this iteration     100.00

 eigenvalues of (default mixing * dielectric matrix)
  average eigenvalue GAMMA=   1.6265
  2.6094  2.6094  1.5625  1.1872  1.0076  0.7829

 Free energy of the ion-electron system (eV)
  ---------------------------------------------------
  alpha Z        PSCENC =         0.57153965
  Ewald energy   TEWEN  =        54.22475701
  -Hartree energ DENC   =      -536.37478137
  -exchange      EXHF   =         0.00000000
  -V(xc)+E(xc)   XCENC  =        32.94498753
  PAW double counting   =      9190.96912171    -9187.17350759
  entropy T*S    EENTRO =        -0.00000000
  eigenvalues    EBANDS =      -149.40450015
  atomic energy  EATOM  =       579.32078282
  Solvation  Ediel_sol  =         0.00000000
  ---------------------------------------------------
  free energy    TOTEN  =       -14.92160038 eV

  energy without entropy =      -14.92160038  energy(sigma->0) =      -14.92160038


--------------------------------------------------------------------------------------------------------




----------------------------------------- Iteration    5(   8)  ---------------------------------------


    POTLOK:  cpu time    4.3232: real time    0.2971
    SETDIJ:  cpu time    0.0015: real time    0.0015
     EDDAV:  cpu time    2.6959: real time    0.1113
       DOS:  cpu time    0.0029: real time    0.0001
    CHARGE:  cpu time    1.2087: real time    0.0424
    MIXING:  cpu time    0.3498: real time    0.0122
    --------------------------------------------
      LOOP:  cpu time    8.6304: real time    0.4663

 eigenvalue-minimisations  :    20
 total energy-change (2. order) :-0.7427676E-04  (-0.4528135E-06)
 number of electron      10.0000003 magnetization 
 augmentation part       -0.0076108 magnetization 

 Broyden mixing:
  rms(total) = 0.11720E-02    rms(broyden)= 0.11720E-02
  rms(prec ) = 0.13024E-02
  weight for this iteration     100.00

 eigenvalues of (default mixing * dielectric matrix)
  average eigenvalue GAMMA=   1.5123
  2.5557  2.5557  1.4257  1.4257  0.8196  0.9017  0.9017

 Free energy of the ion-electron system (eV)
  ---------------------------------------------------
  alpha Z        PSCENC =         0.57153965
  Ewald energy   TEWEN  =        54.22475701
  -Hartree energ DENC   =      -536.38460959
  -exchange      EXHF   =         0.00000000
  -V(xc)+E(xc)   XCENC  =        32.94548751
  PAW double counting   =      9193.71878851    -9189.92307830
  entropy T*S    EENTRO =        -0.00000000
  eigenvalues    EBANDS =      -149.39534227
  atomic energy  EATOM  =       579.32078282
  Solvation  Ediel_sol  =         0.00000000
  ---------------------------------------------------
  free energy    TOTEN  =       -14.92167466 eV

  energy without entropy =      -14.92167466  energy(sigma->0) =      -14.92167466


--------------------------------------------------------------------------------------------------------




----------------------------------------- Iteration    5(   9)  ---------------------------------------


    POTLOK:  cpu time    4.1315: real time    0.3013
    SETDIJ:  cpu time    0.0016: real time    0.0016
     EDDAV:  cpu time    9.0501: real time    0.3209
       DOS:  cpu time    0.0031: real time    0.0001
    CHARGE:  cpu time    1.3171: real time    0.0440
    MIXING:  cpu time    0.3808: real time    0.0128
    --------------------------------------------
      LOOP:  cpu time   14.9340: real time    0.6825

 eigenvalue-minimisations  :    24
 total energy-change (2. order) :-0.1517752E-04  (-0.7135714E-07)
 number of electron      10.0000003 magnetization 
 augmentation part       -0.0075990 magnetization 

 Broyden mixing:
  rms(total) = 0.70253E-03    rms(broyden)= 0.70251E-03
  rms(prec ) = 0.84326E-03
  weight for this iteration     100.00

 eigenvalues of (default mixing * dielectric matrix)
  average eigenvalue GAMMA=   1.5772
  2.4387  2.3266  2.3266  1.7062  0.8139  1.0390  0.9833  0.9833

 Free energy of the ion-electron system (eV)
  ---------------------------------------------------
  alpha Z        PSCENC =         0.57153965
  Ewald energy   TEWEN  =        54.22475701
  -Hartree energ DENC   =      -536.38278341
  -exchange      EXHF   =         0.00000000
  -V(xc)+E(xc)   XCENC  =        32.94536138
  PAW double counting   =      9192.94499402    -9189.14924279
  entropy T*S    EENTRO =        -0.00000000
  eigenvalues    EBANDS =      -149.39709851
  atomic energy  EATOM  =       579.32078282
  Solvation  Ediel_sol  =         0.00000000
  ---------------------------------------------------
  free energy    TOTEN  =       -14.92168984 eV

  energy without entropy =      -14.92168984  energy(sigma->0) =      -14.92168984


--------------------------------------------------------------------------------------------------------




----------------------------------------- Iteration    5(  10)  ---------------------------------------


    POTLOK:  cpu time    4.1073: real time    0.3023
    SETDIJ:  cpu time    0.0016: real time    0.0016
     EDDAV:  cpu time    3.4500: real time    0.1303
       DOS:  cpu time    0.0029: real time    0.0001
    CHARGE:  cpu time    1.0911: real time    0.0368
    MIXING:  cpu time    0.3905: real time    0.0131
    --------------------------------------------
      LOOP:  cpu time    9.0925: real time    0.4858

 eigenvalue-minimisations  :    20
 total energy-change (2. order) :-0.6056260E-04  (-0.5150309E-06)
 number of electron      10.0000003 magnetization 
 augmentation part       -0.0076039 magnetization 

 Broyden mixing:
  rms(total) = 0.92764E-03    rms(broyden)= 0.92763E-03
  rms(prec ) = 0.94720E-03
  weight for this iteration     100.00

 eigenvalues of (default mixing * dielectric matrix)
  average eigenvalue GAMMA=   1.7779
  4.4399  2.4948  2.0364  1.6823  1.6823  1.0115  0.8251  0.9146  0.9146

 Free energy of the ion-electron system (eV)
  ---------------------------------------------------
  alpha Z        PSCENC =         0.57153965
  Ewald energy   TEWEN  =        54.22475701
  -Hartree energ DENC   =      -536.39661098
  -exchange      EXHF   =         0.00000000
  -V(xc)+E(xc)   XCENC  =        32.94597818
  PAW double counting   =      9188.22183852    -9184.42626095
  entropy T*S    EENTRO =        -0.00000000
  eigenvalues    EBANDS =      -149.38377464
  atomic energy  EATOM  =       579.32078282
  Solvation  Ediel_sol  =         0.00000000
  ---------------------------------------------------
  free energy    TOTEN  =       -14.92175040 eV

  energy without entropy =      -14.92175040  energy(sigma->0) =      -14.92175040


--------------------------------------------------------------------------------------------------------




----------------------------------------- Iteration    5(  11)  ---------------------------------------


    POTLOK:  cpu time    4.2529: real time    0.3047
    SETDIJ:  cpu time    0.0016: real time    0.0016
     EDDAV:  cpu time    3.0246: real time    0.1157
       DOS:  cpu time    0.0031: real time    0.0001
    CHARGE:  cpu time    1.1744: real time    0.0383
    MIXING:  cpu time    0.4537: real time    0.0149
    --------------------------------------------
      LOOP:  cpu time    8.9624: real time    0.4771

 eigenvalue-minimisations  :    24
 total energy-change (2. order) :-0.8789427E-05  (-0.6224073E-07)
 number of electron      10.0000003 magnetization 
 augmentation part       -0.0075998 magnetization 

 Broyden mixing:
  rms(total) = 0.46110E-03    rms(broyden)= 0.46109E-03
  rms(prec ) = 0.46525E-03
  weight for this iteration     100.00

 eigenvalues of (default mixing * dielectric matrix)
  average eigenvalue GAMMA=   1.7517
  4.5916  2.4548  2.0639  2.0639  1.7712  0.9851  0.9851  1.0054  0.7982  0.7982

 Free energy of the ion-electron system (eV)
  ---------------------------------------------------
  alpha Z        PSCENC =         0.57153965
  Ewald energy   TEWEN  =        54.22475701
  -Hartree energ DENC   =      -536.39318205
  -exchange      EXHF   =         0.00000000
  -V(xc)+E(xc)   XCENC  =        32.94578877
  PAW double counting   =      9190.23016196    -9186.43448326
  entropy T*S    EENTRO =        -0.00000000
  eigenvalues    EBANDS =      -149.38712409
  atomic energy  EATOM  =       579.32078282
  Solvation  Ediel_sol  =         0.00000000
  ---------------------------------------------------
  free energy    TOTEN  =       -14.92175919 eV

  energy without entropy =      -14.92175919  energy(sigma->0) =      -14.92175919


--------------------------------------------------------------------------------------------------------




----------------------------------------- Iteration    5(  12)  ---------------------------------------


    POTLOK:  cpu time    4.2480: real time    0.3124
    SETDIJ:  cpu time    0.0016: real time    0.0016
     EDDAV:  cpu time    3.2214: real time    0.1234
       DOS:  cpu time    0.0031: real time    0.0001
    CHARGE:  cpu time    1.1299: real time    0.0367
    MIXING:  cpu time    0.4600: real time    0.0149
    --------------------------------------------
      LOOP:  cpu time    9.1166: real time    0.4908

 eigenvalue-minimisations  :    20
 total energy-change (2. order) :-0.3907232E-05  (-0.1568321E-07)
 number of electron      10.0000003 magnetization 
 augmentation part       -0.0075977 magnetization 

 Broyden mixing:
  rms(total) = 0.32223E-03    rms(broyden)= 0.32223E-03
  rms(prec ) = 0.32511E-03
  weight for this iteration     100.00

 eigenvalues of (default mixing * dielectric matrix)
  average eigenvalue GAMMA=   1.8737
  5.8368  2.6293  2.6293  1.8358  1.8358  1.2765  1.1016  0.9565  0.8007  0.8544
  0.8544

 Free energy of the ion-electron system (eV)
  ---------------------------------------------------
  alpha Z        PSCENC =         0.57153965
  Ewald energy   TEWEN  =        54.22475701
  -Hartree energ DENC   =      -536.39116855
  -exchange      EXHF   =         0.00000000
  -V(xc)+E(xc)   XCENC  =        32.94567704
  PAW double counting   =      9192.02152716    -9188.22581781
  entropy T*S    EENTRO =        -0.00000000
  eigenvalues    EBANDS =      -149.38906041
  atomic energy  EATOM  =       579.32078282
  Solvation  Ediel_sol  =         0.00000000
  ---------------------------------------------------
  free energy    TOTEN  =       -14.92176309 eV

  energy without entropy =      -14.92176309  energy(sigma->0) =      -14.92176309


--------------------------------------------------------------------------------------------------------




----------------------------------------- Iteration    5(  13)  ---------------------------------------


    POTLOK:  cpu time    5.7264: real time    0.3091
    SETDIJ:  cpu time    0.0016: real time    0.0015
     EDDAV:  cpu time    6.3559: real time    0.2227
       DOS:  cpu time    0.0031: real time    0.0001
    CHARGE:  cpu time    1.3574: real time    0.0443
    MIXING:  cpu time    0.4872: real time    0.0158
    --------------------------------------------
      LOOP:  cpu time   13.9846: real time    0.5954

 eigenvalue-minimisations  :    22
 total energy-change (2. order) :-0.1846663E-05  (-0.5476007E-08)
 number of electron      10.0000003 magnetization 
 augmentation part       -0.0075983 magnetization 

 Broyden mixing:
  rms(total) = 0.18349E-03    rms(broyden)= 0.18349E-03
  rms(prec ) = 0.18470E-03
  weight for this iteration     100.00

 eigenvalues of (default mixing * dielectric matrix)
  average eigenvalue GAMMA=   1.8291
  5.9964  2.6031  2.5318  1.8089  1.8089  1.6488  1.0417  0.8663  0.8663  0.8951
  0.9409  0.9409

 Free energy of the ion-electron system (eV)
  ---------------------------------------------------
  alpha Z        PSCENC =         0.57153965
  Ewald energy   TEWEN  =        54.22475701
  -Hartree energ DENC   =      -536.39105476
  -exchange      EXHF   =         0.00000000
  -V(xc)+E(xc)   XCENC  =        32.94566614
  PAW double counting   =      9191.59092786    -9187.79522761
  entropy T*S    EENTRO =        -0.00000000
  eigenvalues    EBANDS =      -149.38915604
  atomic energy  EATOM  =       579.32078282
  Solvation  Ediel_sol  =         0.00000000
  ---------------------------------------------------
  free energy    TOTEN  =       -14.92176494 eV

  energy without entropy =      -14.92176494  energy(sigma->0) =      -14.92176494


--------------------------------------------------------------------------------------------------------




----------------------------------------- Iteration    5(  14)  ---------------------------------------


    POTLOK:  cpu time    5.7473: real time    0.3208
    SETDIJ:  cpu time    0.0017: real time    0.0017
     EDDAV:  cpu time    3.2219: real time    0.1208
       DOS:  cpu time    0.0035: real time    0.0001
    --------------------------------------------
      LOOP:  cpu time    9.0159: real time    0.4448

 eigenvalue-minimisations  :    24
 total energy-change (2. order) :-0.3141258E-06  (-0.7480558E-09)
 number of electron      10.0000003 magnetization 
 augmentation part       -0.0075983 magnetization 

 Free energy of the ion-electron system (eV)
  ---------------------------------------------------
  alpha Z        PSCENC =         0.57153965
  Ewald energy   TEWEN  =        54.22475701
  -Hartree energ DENC   =      -536.39139755
  -exchange      EXHF   =         0.00000000
  -V(xc)+E(xc)   XCENC  =        32.94568796
  PAW double counting   =      9191.21012299    -9187.41442835
  entropy T*S    EENTRO =        -0.00000000
  eigenvalues    EBANDS =      -149.38882978
  atomic energy  EATOM  =       579.32078282
  Solvation  Ediel_sol  =         0.00000000
  ---------------------------------------------------
  free energy    TOTEN  =       -14.92176526 eV

  energy without entropy =      -14.92176526  energy(sigma->0) =      -14.92176526


--------------------------------------------------------------------------------------------------------




 average (electrostatic) potential at core
  the test charge radii are     0.5770  0.5955
  (the norm of the test charge is              1.0000)
       1 -88.7354       2-122.3419
 
 
 
 E-fermi :  -7.7707     XC(G=0):  -1.1897     alpha+bet : -0.3665


 k-point     1 :       0.0000    0.0000    0.0000
  band No.  band energies     occupation 
      1     -29.1135      2.00000
      2     -13.7743      2.00000
      3     -11.5580      2.00000
      4     -11.5580      2.00000
      5      -8.6907      2.00000
      6      -1.5913      0.00000
      7      -1.5913      0.00000
      8      -0.2324      0.00000
      9       1.7312      0.00000
     10       1.8979      0.00000


--------------------------------------------------------------------------------------------------------


 soft charge-density along one line, spin component           1
         0         1         2         3         4         5         6         7         8         9
 total charge-density along one line
 
 pseudopotential strength for first ion, spin component:           1
 12.822  21.580   0.000   0.051  -0.000   0.000   0.090  -0.000
 21.580  36.318   0.000   0.085  -0.000   0.000   0.151  -0.000
  0.000   0.000  -3.219  -0.000   0.000  -5.773  -0.000   0.000
  0.051   0.085  -0.000  -3.215  -0.000  -0.000  -5.766  -0.000
 -0.000  -0.000   0.000  -0.000  -3.219   0.000  -0.000  -5.773
  0.000   0.000  -5.773  -0.000   0.000 -10.331  -0.000   0.000
  0.090   0.151  -0.000  -5.766  -0.000  -0.000 -10.320  -0.000
 -0.000  -0.000   0.000  -0.000  -5.773   0.000  -0.000 -10.331
 total augmentation occupancy for first ion, spin component:           1
  7.352  -2.639   0.000   6.892   0.000   0.000  -3.160  -0.000
 -2.639   1.190   0.000  -3.532  -0.000   0.000   1.501  -0.000
  0.000   0.000   3.379   0.000   0.000  -1.101   0.000   0.000
  6.892  -3.532   0.000  13.061  -0.000   0.000  -5.054   0.000
  0.000  -0.000   0.000  -0.000   3.379   0.000   0.000  -1.101
  0.000   0.000  -1.101   0.000   0.000   0.359   0.000   0.000
 -3.160   1.501   0.000  -5.054   0.000   0.000   2.035  -0.000
 -0.000  -0.000   0.000   0.000  -1.101   0.000  -0.000   0.359


------------------------ aborting loop because EDIFF is reached ----------------------------------------


    CHARGE:  cpu time    1.1571: real time    0.0379
    FORLOC:  cpu time    0.5162: real time    0.0169
    FORNL :  cpu time    0.2114: real time    0.0069
    STRESS:  cpu time    2.0266: real time    0.0659
    FORCOR:  cpu time    2.0365: real time    0.3342
    FORHAR:  cpu time    0.0744: real time    0.0745
    MIXING:  cpu time    0.1826: real time    0.0172
    OFIELD:  cpu time    0.0070: real time    0.0002

  FORCE on cell =-STRESS in cart. coord.  units (eV):
  Direction    XX          YY          ZZ          XY          YZ          ZX
  --------------------------------------------------------------------------------------
  Alpha Z     0.57154     0.57154     0.57154
  Ewald     -85.97602   -85.97602   226.17674     0.00000     0.00000     0.00000
  Hartree   142.02667   142.02667   252.33784    -0.00000    -0.00000    -0.00000
  E(xc)     -46.01240   -46.01240   -45.23966    -0.00000    -0.00000    -0.00000
  Local    -257.07333  -257.07333  -658.54055    -0.00000    -0.00000    -0.00000
  n-local    -2.92511    -2.92511    -7.69963     0.00000     0.00000     0.00000
  augment     0.46057     0.46057     0.69931     0.00000     0.00000     0.00000
  Kinetic   247.48800   247.48800   231.80707    -0.00000     0.00000    -0.00000
  Fock        0.00000     0.00000     0.00000     0.00000     0.00000     0.00000
  -------------------------------------------------------------------------------------
  Total      -1.44008    -1.44008     0.11267     0.00000     0.00000     0.00000
  in kB      -4.50638    -4.50638     0.35259     0.00000     0.00000     0.00000
  external pressure =       -2.89 kB  Pullay stress =        0.00 kB


 VOLUME and BASIS-vectors are now :
 -----------------------------------------------------------------------------
  energy-cutoff  :      700.00
  volume of cell :      512.00
      direct lattice vectors                 reciprocal lattice vectors
     8.000000000  0.000000000  0.000000000     0.125000000  0.000000000  0.000000000
     0.000000000  8.000000000  0.000000000     0.000000000  0.125000000  0.000000000
     0.000000000  0.000000000  8.000000000     0.000000000  0.000000000  0.125000000

  length of vectors
     8.000000000  8.000000000  8.000000000     0.125000000  0.125000000  0.125000000


 FORCES acting on ions
    electron-ion (+dipol)            ewald-force                    non-local-force                 convergence-correction
 -----------------------------------------------------------------------------------------------
   -.270E-15 -.975E-14 0.243E+03   -.250E-16 -.973E-16 -.271E+03   -.808E-27 0.808E-27 0.259E+02   0.156E-13 0.132E-13 0.376E-04
   -.222E-14 -.671E-14 -.218E+03   0.619E-16 0.153E-15 0.271E+03   0.000E+00 -.646E-26 -.513E+02   -.653E-14 -.715E-16 0.131E-03
 -----------------------------------------------------------------------------------------------
   -.249E-14 -.165E-13 0.254E+02   0.369E-16 0.557E-16 0.000E+00   -.808E-27 -.565E-26 -.255E+02   0.910E-14 0.132E-13 0.169E-03
 
 
 POSITION                                       TOTAL-FORCE (eV/Angst)
 -----------------------------------------------------------------------------------
      0.00000      0.00000      0.00000         0.000000      0.000000     -1.457038
      0.00000      0.00000      1.12300         0.000000      0.000000      1.457038
 -----------------------------------------------------------------------------------
    total drift:                                0.000000     -0.000000     -0.003444


--------------------------------------------------------------------------------------------------------



  FREE ENERGIE OF THE ION-ELECTRON SYSTEM (eV)
  ---------------------------------------------------
  free  energy   TOTEN  =       -14.92176526 eV

  energy  without entropy=      -14.92176526  energy(sigma->0) =      -14.92176526
 
 d Force = 0.2831443E-01[-0.583E-01, 0.115E+00]  d Energy = 0.3264705E-01-0.433E-02
 d Force =-0.1045376E+02[-0.108E+02,-0.101E+02]  d Ewald  =-0.1044728E+02-0.648E-02


--------------------------------------------------------------------------------------------------------


    POTLOK:  cpu time    5.7201: real time    0.3218


--------------------------------------------------------------------------------------------------------


 stress matrix after NEB project (eV)
     -1.44008      0.00000      0.00000
      0.00000     -1.44008      0.00000
     -0.00000      0.00000      0.11267
  FORCES: max atom, RMS     1.457038    1.457038
  FORCE total and by dimension    2.060563    1.457038
  Stress total and by dimension    2.039697    1.440081
 Finite differences progress:
  Degree of freedom:   2/  2
  Displacement:        2/  2
  Total:               4/  4
 
 SECOND DERIVATIVES (NOT SYMMETRIZED)
 ------------------------------------
               1Z          2Z 
  1Z  -108.247546  108.247546
  2Z   108.244950 -108.244950
 
 
 Eigenvectors and eigenvalues of the dynamical matrix
 ----------------------------------------------------
 
 
   1 f  =   62.097233 THz   390.168419 2PiTHz 2071.340655 cm-1   256.813603 meV
             X         Y         Z           dx          dy          dz
      0.000000  0.000000  0.000000            0           0   -0.755784  
      0.000000  0.000000  1.143000            0           0    0.654821  
 
   2 f/i=    0.000368 THz     0.002315 2PiTHz    0.012288 cm-1     0.001524 meV
             X         Y         Z           dx          dy          dz
      0.000000  0.000000  0.000000            0           0   -0.654821  
      0.000000  0.000000  1.143000            0           0   -0.755784  
 
 Finite differences POTIM=  2.000000000000000E-002
  LATTYP: Found a simple cubic cell.
 ALAT       =     8.0000000000
  
  Lattice vectors:
  
 A1 = (   8.0000000000,   0.0000000000,   0.0000000000)
 A2 = (   0.0000000000,   8.0000000000,   0.0000000000)
 A3 = (   0.0000000000,   0.0000000000,   8.0000000000)


Analysis of symmetry for initial positions (statically):
=====================================================================
 Subroutine PRICEL returns:
 Original cell was already a primitive cell.
 

 Routine SETGRP: Setting up the symmetry group for a 
 simple cubic supercell.


 Subroutine GETGRP returns: Found  8 space group operations
 (whereof  8 operations were pure point group operations)
 out of a pool of 48 trial point group operations.


The static configuration has the point symmetry C_4v.


Analysis of symmetry for dynamics (positions and initial velocities):
=====================================================================
 Subroutine PRICEL returns:
 Original cell was already a primitive cell.
 

 Routine SETGRP: Setting up the symmetry group for a 
 simple cubic supercell.


 Subroutine GETGRP returns: Found  8 space group operations
 (whereof  8 operations were pure point group operations)
 out of a pool of 48 trial point group operations.


The dynamic configuration has the point symmetry C_4v.


Analysis of constrained symmetry for selective dynamics:
=====================================================================
 Subroutine PRICEL returns:
 Original cell was already a primitive cell.
 

 Routine SETGRP: Setting up the symmetry group for a 
 simple cubic supercell.


 Subroutine GETGRP returns: Found  8 space group operations
 (whereof  8 operations were pure point group operations)
 out of a pool of 48 trial point group operations.


The constrained configuration has the point symmetry C_4v.


 Subroutine INISYM returns: Found  8 space group operations
 (whereof  8 operations are pure point group operations),
 and found     1 'primitive' translations

 
 KPOINTS: Gamma-point only                        

Automatic generation of k-mesh.
Space group operators:
 irot       det(A)        alpha          n_x          n_y          n_z        tau_x        tau_y        tau_z
    1     1.000000     0.000000     1.000000     0.000000     0.000000     0.000000     0.000000     0.000000
    2     1.000000    90.000000     0.000000     0.000000    -1.000000     0.000000     0.000000     0.000000
    3     1.000000   180.000000     0.000000     0.000000     1.000000     0.000000     0.000000     0.000000
    4     1.000000    90.000000     0.000000     0.000000     1.000000     0.000000     0.000000     0.000000
    5    -1.000000   180.000000     1.000000     0.000000     0.000000     0.000000     0.000000     0.000000
    6    -1.000000   180.000000     0.707107     0.707107     0.000000     0.000000     0.000000     0.000000
    7    -1.000000   180.000000     0.000000     1.000000     0.000000     0.000000     0.000000     0.000000
    8    -1.000000   180.000000     0.707107    -0.707107     0.000000     0.000000     0.000000     0.000000
 
 Subroutine IBZKPT returns following result:
 ===========================================
 
 Found      1 irreducible k-points:
 
 Following reciprocal coordinates:
            Coordinates               Weight
  0.000000  0.000000  0.000000      1.000000
 
 Following cartesian coordinates:
            Coordinates               Weight
  0.000000  0.000000  0.000000      1.000000
 
 use seriel FFT for wavefunctions x direction half grid
 writing wavefunctions
     LOOP+:  cpu time  166.2369: real time    8.5406
    4ORBIT:  cpu time    0.0001: real time    0.0000

 total amount of memory used by VASP on root node    96832. kBytes
========================================================================

   base      :      30000. kBytes
   nonl-proj :       1724. kBytes
   fftplans  :      22159. kBytes
   grid      :      42083. kBytes
   one-center:          3. kBytes
   wavefun   :        863. kBytes
 
  
  
 General timing and accounting informations for this job:
 ========================================================
  
                  Total CPU time used (sec):      805.200
                            User time (sec):      751.244
                          System time (sec):       53.956
                         Elapsed time (sec):       48.956
  
                   Maximum memory used (kb):      200756.
                   Average memory used (kb):           0.
  
                          Minor page faults:       609712
                          Major page faults:          161
                 Voluntary context switches:         4245
