CO dimer in a box                       
   1.00000000000000     
     8.0000000000000000    0.0000000000000000    0.0000000000000000
     0.0000000000000000    8.0000000000000000    0.0000000000000000
     0.0000000000000000    0.0000000000000000    8.0000000000000000
   C    O 
     1     1
Selective dynamics
Direct
  0.0000000000000000  0.0000000000000000  0.0004885934221749   F   F   T
  0.0000000000000000  0.0000000000000000  0.1423864065778217   F   F   T
 
  0.00000000E+00  0.00000000E+00  0.00000000E+00
  0.00000000E+00  0.00000000E+00  0.00000000E+00
