   2   2   0   0
  0.2560000E+03  0.8000000E-09  0.8000000E-09  0.8000000E-09  0.2000000E-15
  1.000000000000000E-004
  CAR 
 CO dimer in a box                       
      3.95936029    -30.94561134  301     -7.79016219      1.00000000
    -30.946  0.0000E+00  0.0000E+00
    -30.829  0.0000E+00  0.0000E+00
    -30.713  0.0000E+00  0.0000E+00
    -30.597  0.0000E+00  0.0000E+00
    -30.480  0.0000E+00  0.0000E+00
    -30.364  0.0000E+00  0.0000E+00
    -30.248  0.0000E+00  0.0000E+00
    -30.131  0.0000E+00  0.0000E+00
    -30.015  0.6908E-13  0.8038E-14
    -29.898  0.2760E-10  0.3219E-11
    -29.782  0.5679E-08  0.6639E-09
    -29.666  0.6026E-06  0.7077E-07
    -29.549  0.3307E-04  0.3918E-05
    -29.433  0.9414E-03  0.1135E-03
    -29.317  0.1396E-01  0.1738E-02
    -29.200  0.1082E+00  0.1433E-01
    -29.084  0.4402E+00  0.6555E-01
    -28.968  0.9426E+00  0.1752E+00
    -28.851  0.1064E+01  0.2990E+00
    -28.735  0.6335E+00  0.3727E+00
    -28.619  0.1987E+00  0.3958E+00
    -28.502  0.3274E-01  0.3997E+00
    -28.386  0.2825E-02  0.4000E+00
    -28.270  0.1271E-03  0.4000E+00
    -28.153  0.2971E-05  0.4000E+00
    -28.037  0.3597E-07  0.4000E+00
    -27.921  0.2247E-09  0.4000E+00
    -27.804  0.7233E-12  0.4000E+00
    -27.688  0.1145E-14  0.4000E+00
    -27.571  0.0000E+00  0.4000E+00
    -27.455  0.0000E+00  0.4000E+00
    -27.339  0.0000E+00  0.4000E+00
    -27.222  0.0000E+00  0.4000E+00
    -27.106  0.0000E+00  0.4000E+00
    -26.990  0.0000E+00  0.4000E+00
    -26.873  0.0000E+00  0.4000E+00
    -26.757  0.0000E+00  0.4000E+00
    -26.641  0.0000E+00  0.4000E+00
    -26.524  0.0000E+00  0.4000E+00
    -26.408  0.0000E+00  0.4000E+00
    -26.292  0.0000E+00  0.4000E+00
    -26.175  0.0000E+00  0.4000E+00
    -26.059  0.0000E+00  0.4000E+00
    -25.943  0.0000E+00  0.4000E+00
    -25.826  0.0000E+00  0.4000E+00
    -25.710  0.0000E+00  0.4000E+00
    -25.594  0.0000E+00  0.4000E+00
    -25.477  0.0000E+00  0.4000E+00
    -25.361  0.0000E+00  0.4000E+00
    -25.244  0.0000E+00  0.4000E+00
    -25.128  0.0000E+00  0.4000E+00
    -25.012  0.0000E+00  0.4000E+00
    -24.895  0.0000E+00  0.4000E+00
    -24.779  0.0000E+00  0.4000E+00
    -24.663  0.0000E+00  0.4000E+00
    -24.546  0.0000E+00  0.4000E+00
    -24.430  0.0000E+00  0.4000E+00
    -24.314  0.0000E+00  0.4000E+00
    -24.197  0.0000E+00  0.4000E+00
    -24.081  0.0000E+00  0.4000E+00
    -23.965  0.0000E+00  0.4000E+00
    -23.848  0.0000E+00  0.4000E+00
    -23.732  0.0000E+00  0.4000E+00
    -23.616  0.0000E+00  0.4000E+00
    -23.499  0.0000E+00  0.4000E+00
    -23.383  0.0000E+00  0.4000E+00
    -23.267  0.0000E+00  0.4000E+00
    -23.150  0.0000E+00  0.4000E+00
    -23.034  0.0000E+00  0.4000E+00
    -22.917  0.0000E+00  0.4000E+00
    -22.801  0.0000E+00  0.4000E+00
    -22.685  0.0000E+00  0.4000E+00
    -22.568  0.0000E+00  0.4000E+00
    -22.452  0.0000E+00  0.4000E+00
    -22.336  0.0000E+00  0.4000E+00
    -22.219  0.0000E+00  0.4000E+00
    -22.103  0.0000E+00  0.4000E+00
    -21.987  0.0000E+00  0.4000E+00
    -21.870  0.0000E+00  0.4000E+00
    -21.754  0.0000E+00  0.4000E+00
    -21.638  0.0000E+00  0.4000E+00
    -21.521  0.0000E+00  0.4000E+00
    -21.405  0.0000E+00  0.4000E+00
    -21.289  0.0000E+00  0.4000E+00
    -21.172  0.0000E+00  0.4000E+00
    -21.056  0.0000E+00  0.4000E+00
    -20.940  0.0000E+00  0.4000E+00
    -20.823  0.0000E+00  0.4000E+00
    -20.707  0.0000E+00  0.4000E+00
    -20.590  0.0000E+00  0.4000E+00
    -20.474  0.0000E+00  0.4000E+00
    -20.358  0.0000E+00  0.4000E+00
    -20.241  0.0000E+00  0.4000E+00
    -20.125  0.0000E+00  0.4000E+00
    -20.009  0.0000E+00  0.4000E+00
    -19.892  0.0000E+00  0.4000E+00
    -19.776  0.0000E+00  0.4000E+00
    -19.660  0.0000E+00  0.4000E+00
    -19.543  0.0000E+00  0.4000E+00
    -19.427  0.0000E+00  0.4000E+00
    -19.311  0.0000E+00  0.4000E+00
    -19.194  0.0000E+00  0.4000E+00
    -19.078  0.0000E+00  0.4000E+00
    -18.962  0.0000E+00  0.4000E+00
    -18.845  0.0000E+00  0.4000E+00
    -18.729  0.0000E+00  0.4000E+00
    -18.613  0.0000E+00  0.4000E+00
    -18.496  0.0000E+00  0.4000E+00
    -18.380  0.0000E+00  0.4000E+00
    -18.263  0.0000E+00  0.4000E+00
    -18.147  0.0000E+00  0.4000E+00
    -18.031  0.0000E+00  0.4000E+00
    -17.914  0.0000E+00  0.4000E+00
    -17.798  0.0000E+00  0.4000E+00
    -17.682  0.0000E+00  0.4000E+00
    -17.565  0.0000E+00  0.4000E+00
    -17.449  0.0000E+00  0.4000E+00
    -17.333  0.0000E+00  0.4000E+00
    -17.216  0.0000E+00  0.4000E+00
    -17.100  0.0000E+00  0.4000E+00
    -16.984  0.0000E+00  0.4000E+00
    -16.867  0.0000E+00  0.4000E+00
    -16.751  0.0000E+00  0.4000E+00
    -16.635  0.0000E+00  0.4000E+00
    -16.518  0.0000E+00  0.4000E+00
    -16.402  0.0000E+00  0.4000E+00
    -16.286  0.0000E+00  0.4000E+00
    -16.169  0.0000E+00  0.4000E+00
    -16.053  0.0000E+00  0.4000E+00
    -15.936  0.0000E+00  0.4000E+00
    -15.820  0.0000E+00  0.4000E+00
    -15.704  0.0000E+00  0.4000E+00
    -15.587  0.0000E+00  0.4000E+00
    -15.471  0.0000E+00  0.4000E+00
    -15.355  0.0000E+00  0.4000E+00
    -15.238  0.0000E+00  0.4000E+00
    -15.122  0.0000E+00  0.4000E+00
    -15.006  0.0000E+00  0.4000E+00
    -14.889  0.9160E-14  0.4000E+00
    -14.773  0.4499E-11  0.4000E+00
    -14.657  0.1141E-08  0.4000E+00
    -14.540  0.1491E-06  0.4000E+00
    -14.424  0.1006E-04  0.4000E+00
    -14.308  0.3521E-03  0.4000E+00
    -14.191  0.6409E-02  0.4008E+00
    -14.075  0.6091E-01  0.4079E+00
    -13.959  0.3034E+00  0.4432E+00
    -13.842  0.7948E+00  0.5357E+00
    -13.726  0.1097E+01  0.6633E+00
    -13.609  0.7991E+00  0.7563E+00
    -13.493  0.3067E+00  0.7920E+00
    -13.377  0.6191E-01  0.7992E+00
    -13.260  0.6550E-02  0.8000E+00
    -13.144  0.3619E-03  0.8000E+00
    -13.028  0.1040E-04  0.8000E+00
    -12.911  0.1549E-06  0.8000E+00
    -12.795  0.1192E-08  0.8000E+00
    -12.679  0.4728E-11  0.8000E+00
    -12.562  0.2595E-13  0.8000E+00
    -12.446  0.8080E-11  0.8000E+00
    -12.330  0.2074E-08  0.8000E+00
    -12.213  0.2743E-06  0.8000E+00
    -12.097  0.1874E-04  0.8000E+00
    -11.981  0.6637E-03  0.8001E+00
    -11.864  0.1223E-01  0.8015E+00
    -11.748  0.1176E+00  0.8152E+00
    -11.632  0.5926E+00  0.8841E+00
    -11.515  0.1571E+01  0.1067E+01
    -11.399  0.2194E+01  0.1322E+01
    -11.282  0.1617E+01  0.1510E+01
    -11.166  0.6279E+00  0.1583E+01
    -11.050  0.1282E+00  0.1598E+01
    -10.933  0.1373E-01  0.1600E+01
    -10.817  0.7677E-03  0.1600E+01
    -10.701  0.2233E-04  0.1600E+01
    -10.584  0.3367E-06  0.1600E+01
    -10.468  0.2623E-08  0.1600E+01
    -10.352  0.1053E-10  0.1600E+01
    -10.235  0.2137E-13  0.1600E+01
    -10.119  0.0000E+00  0.1600E+01
    -10.003  0.0000E+00  0.1600E+01
     -9.886  0.1908E-15  0.1600E+01
     -9.770  0.1756E-12  0.1600E+01
     -9.654  0.6359E-10  0.1600E+01
     -9.537  0.1186E-07  0.1600E+01
     -9.421  0.1140E-05  0.1600E+01
     -9.305  0.5673E-04  0.1600E+01
     -9.188  0.1466E-02  0.1600E+01
     -9.072  0.1973E-01  0.1602E+01
     -8.955  0.1389E+00  0.1619E+01
     -8.839  0.5135E+00  0.1678E+01
     -8.723  0.9994E+00  0.1795E+01
     -8.606  0.1026E+01  0.1914E+01
     -8.490  0.5552E+00  0.1979E+01
     -8.374  0.1583E+00  0.1997E+01
     -8.257  0.2369E-01  0.2000E+01
     -8.141  0.1855E-02  0.2000E+01
     -8.025  0.7575E-04  0.2000E+01
     -7.908  0.1606E-05  0.2000E+01
     -7.792  0.1762E-07  0.2000E+01
     -7.676  0.9977E-10  0.2000E+01
     -7.559  0.2908E-12  0.2000E+01
     -7.443  0.3817E-15  0.2000E+01
     -7.327  0.0000E+00  0.2000E+01
     -7.210  0.0000E+00  0.2000E+01
     -7.094  0.0000E+00  0.2000E+01
     -6.978  0.0000E+00  0.2000E+01
     -6.861  0.0000E+00  0.2000E+01
     -6.745  0.0000E+00  0.2000E+01
     -6.628  0.0000E+00  0.2000E+01
     -6.512  0.0000E+00  0.2000E+01
     -6.396  0.0000E+00  0.2000E+01
     -6.279  0.0000E+00  0.2000E+01
     -6.163  0.0000E+00  0.2000E+01
     -6.047  0.0000E+00  0.2000E+01
     -5.930  0.0000E+00  0.2000E+01
     -5.814  0.0000E+00  0.2000E+01
     -5.698  0.0000E+00  0.2000E+01
     -5.581  0.0000E+00  0.2000E+01
     -5.465  0.0000E+00  0.2000E+01
     -5.349  0.0000E+00  0.2000E+01
     -5.232  0.0000E+00  0.2000E+01
     -5.116  0.0000E+00  0.2000E+01
     -5.000  0.0000E+00  0.2000E+01
     -4.883  0.0000E+00  0.2000E+01
     -4.767  0.0000E+00  0.2000E+01
     -4.651  0.0000E+00  0.2000E+01
     -4.534  0.0000E+00  0.2000E+01
     -4.418  0.0000E+00  0.2000E+01
     -4.301  0.0000E+00  0.2000E+01
     -4.185  0.0000E+00  0.2000E+01
     -4.069  0.0000E+00  0.2000E+01
     -3.952  0.0000E+00  0.2000E+01
     -3.836  0.0000E+00  0.2000E+01
     -3.720  0.0000E+00  0.2000E+01
     -3.603  0.0000E+00  0.2000E+01
     -3.487  0.0000E+00  0.2000E+01
     -3.371  0.0000E+00  0.2000E+01
     -3.254  0.0000E+00  0.2000E+01
     -3.138  0.0000E+00  0.2000E+01
     -3.022  0.0000E+00  0.2000E+01
     -2.905  0.0000E+00  0.2000E+01
     -2.789  0.8702E-13  0.2000E+01
     -2.673  0.3652E-10  0.2000E+01
     -2.556  0.7887E-08  0.2000E+01
     -2.440  0.8781E-06  0.2000E+01
     -2.324  0.5054E-04  0.2000E+01
     -2.207  0.1509E-02  0.2000E+01
     -2.091  0.2346E-01  0.2003E+01
     -1.974  0.1906E+00  0.2025E+01
     -1.858  0.8126E+00  0.2120E+01
     -1.742  0.1823E+01  0.2332E+01
     -1.625  0.2155E+01  0.2582E+01
     -1.509  0.1344E+01  0.2739E+01
     -1.393  0.4418E+00  0.2790E+01
     -1.276  0.7629E-01  0.2799E+01
     -1.160  0.6899E-02  0.2800E+01
     -1.044  0.3255E-03  0.2800E+01
     -0.927  0.8099E-05  0.2800E+01
     -0.811  0.8283E-05  0.2800E+01
     -0.695  0.2964E-03  0.2800E+01
     -0.578  0.5584E-02  0.2801E+01
     -0.462  0.5493E-01  0.2807E+01
     -0.346  0.2832E+00  0.2840E+01
     -0.229  0.7675E+00  0.2929E+01
     -0.113  0.1096E+01  0.3057E+01
      0.003  0.8259E+00  0.3153E+01
      0.120  0.3280E+00  0.3191E+01
      0.236  0.6850E-01  0.3199E+01
      0.353  0.7501E-02  0.3200E+01
      0.469  0.4290E-03  0.3200E+01
      0.585  0.1277E-04  0.3200E+01
      0.702  0.1969E-06  0.3200E+01
      0.818  0.1605E-08  0.3200E+01
      0.934  0.7040E-08  0.3200E+01
      1.051  0.7256E-06  0.3200E+01
      1.167  0.3873E-04  0.3200E+01
      1.283  0.1074E-02  0.3200E+01
      1.400  0.1557E-01  0.3202E+01
      1.516  0.1193E+00  0.3216E+01
      1.632  0.4936E+00  0.3273E+01
      1.749  0.1159E+01  0.3408E+01
      1.865  0.1688E+01  0.3604E+01
      1.981  0.1675E+01  0.3799E+01
      2.098  0.1129E+01  0.3931E+01
      2.214  0.4701E+00  0.3985E+01
      2.330  0.1107E+00  0.3998E+01
      2.447  0.1407E-01  0.4000E+01
      2.563  0.9439E-03  0.4000E+01
      2.680  0.3309E-04  0.4000E+01
      2.796  0.6027E-06  0.4000E+01
      2.912  0.5679E-08  0.4000E+01
      3.029  0.2760E-10  0.4000E+01
      3.145  0.6908E-13  0.4000E+01
      3.261  0.0000E+00  0.4000E+01
      3.378  0.0000E+00  0.4000E+01
      3.494  0.0000E+00  0.4000E+01
      3.610  0.0000E+00  0.4000E+01
      3.727  0.0000E+00  0.4000E+01
      3.843  0.0000E+00  0.4000E+01
      3.959  0.0000E+00  0.4000E+01
