    2    2    5    1
  0.2560000E+03  0.8000000E-09  0.8000000E-09  0.8000000E-09  0.2000000E-15
  1.000000000000000E-004
  CAR 
 CO dimer in a box                       
     10      1     10
 
  0.0000000E+00  0.0000000E+00  0.0000000E+00  0.1000000E+01
    1      -28.945611   1.000000
    2      -13.783507   1.000000
    3      -11.454376   1.000000
    4      -11.454376   1.000000
    5       -8.718044   1.000000
    6       -1.711282   0.000000
    7       -1.711280   0.000000
    8       -0.164391   0.000000
    9        1.765768   0.000000
   10        1.959360   0.000000
