       N       E                     dE             d eps       ncg     rms          rms(c)
DAV:   1     0.898591631354E+02    0.89859E+02   -0.29972E+03    20   0.706E+02
DAV:   2     0.171952863054E+02   -0.72664E+02   -0.71796E+02    36   0.131E+02
DAV:   3    -0.132608679505E+02   -0.30456E+02   -0.30443E+02    32   0.849E+01
DAV:   4    -0.157334903764E+02   -0.24726E+01   -0.24725E+01    32   0.235E+01
DAV:   5    -0.157410858486E+02   -0.75955E-02   -0.75952E-02    30   0.146E+00    0.297E+01
DAV:   6    -0.150969672316E+02    0.64412E+00   -0.32762E+00    20   0.114E+01    0.200E+01
DAV:   7    -0.150422417611E+02    0.54725E-01   -0.26706E+00    30   0.945E+00    0.268E+00
DAV:   8    -0.149204739736E+02    0.12177E+00   -0.83645E-01    24   0.498E+00    0.230E+00
DAV:   9    -0.149229293030E+02   -0.24553E-02   -0.31691E-02    28   0.152E+00    0.365E-01
DAV:  10    -0.149226485550E+02    0.28075E-03   -0.77598E-03    24   0.660E-01    0.434E-01
DAV:  11    -0.149242273677E+02   -0.15788E-02   -0.58770E-04    22   0.193E-01    0.853E-02
DAV:  12    -0.149247337483E+02   -0.50638E-03   -0.19753E-04    24   0.929E-02    0.563E-02
DAV:  13    -0.149260901229E+02   -0.13564E-02   -0.18843E-04    20   0.709E-02    0.490E-02
DAV:  14    -0.149266107153E+02   -0.52059E-03   -0.59627E-05    24   0.370E-02    0.305E-02
DAV:  15    -0.149269612392E+02   -0.35052E-03   -0.44433E-05    24   0.303E-02    0.947E-03
DAV:  16    -0.149269844632E+02   -0.23224E-04   -0.85048E-07    22   0.612E-03
   1 F= -.14926984E+02 E0= -.14926984E+02  d E =-.149270E+02
       N       E                     dE             d eps       ncg     rms          rms(c)
DAV:   1    -0.148947981000E+02    0.32163E-01   -0.60826E+00    20   0.289E+01    0.512E+00
DAV:   2    -0.148931133108E+02    0.16848E-02   -0.73535E-02    20   0.236E+00    0.774E-01
DAV:   3    -0.148904762091E+02    0.26371E-02   -0.63793E-03    32   0.703E-01    0.597E-01
DAV:   4    -0.148899762476E+02    0.49996E-03   -0.30049E-03    24   0.486E-01    0.218E-01
DAV:   5    -0.148900437379E+02   -0.67490E-04   -0.19032E-04    20   0.122E-01
   2 F= -.14890044E+02 E0= -.14890044E+02  d E =0.369407E-01
       N       E                     dE             d eps       ncg     rms          rms(c)
DAV:   1    -0.149338301956E+02   -0.43854E-01   -0.35946E+00    20   0.223E+01    0.327E+00
DAV:   2    -0.149318808998E+02    0.19493E-02   -0.38022E-02    24   0.173E+00    0.604E-01
DAV:   3    -0.149305099911E+02    0.13709E-02   -0.38687E-03    24   0.552E-01    0.442E-01
DAV:   4    -0.149303758509E+02    0.13414E-03   -0.14287E-03    20   0.331E-01    0.145E-01
DAV:   5    -0.149304163504E+02   -0.40500E-04   -0.11238E-04    24   0.934E-02
   3 F= -.14930416E+02 E0= -.14930416E+02  d E =-.343189E-02
