 vasp.5.4.1 05Feb16 (build Nov 22 2023 12:07:42) gamma-only                     
  
 executed on           IFC91_ompi date 2026.09.22  14:28:08
 running on    2 total cores
 distrk:  each k-point on    2 cores,    1 groups
 distr:  one band on NCORES_PER_BAND=   1 cores,    2 groups


--------------------------------------------------------------------------------------------------------


 INCAR:
 POTCAR:    PAW_PBE C_h 06Feb2004                 
 POTCAR:    PAW_PBE O_h 06Feb2004                 
 POTCAR:    PAW_PBE C_h 06Feb2004                 
   VRHFIN =C: s2p2                                                              
   LEXCH  = PE                                                                  
   EATOM  =   147.1560 eV,   10.8157 Ry                                         
                                                                                
   TITEL  = PAW_PBE C_h 06Feb2004                                               
   LULTRA =        F    use ultrasoft PP ?                                      
   IUNSCR =        1    unscreen: 0-lin 1-nonlin 2-no                           
   RPACOR =    0.800    partial core radius                                     
   POMASS =   12.011; ZVAL   =    4.000    mass and valenz                      
   RCORE  =    1.100    outmost cutoff radius                                   
   RWIGS  =    1.630; RWIGS  =    0.863    wigner-seitz radius (au A)           
   ENMAX  =  700.000; ENMIN  =  500.000 eV                                      
   ICORE  =        2    local potential                                         
   LCOR   =        T    correct aug charges                                     
   LPAW   =        T    paw PP                                                  
   EAUG   =  946.768                                                            
   DEXC   =    0.000                                                            
   RMAX   =    1.128    core radius for proj-oper                               
   RAUG   =    1.300    factor for augmentation sphere                          
   RDEP   =    1.162    radius for radial grids                                 
   RDEPT  =    1.088    core radius for aug-charge                              
                                                                                
   Atomic configuration                                                         
    4 entries                                                                   
     n  l   j            E        occ.                                          
     1  0  0.50      -273.3789   2.0000                                         
     2  0  0.50       -13.7508   2.0000                                         
     2  1  0.50        -5.2854   2.0000                                         
     3  2  1.50        -5.4423   0.0000                                         
   Description                                                                  
     l       E           TYP  RCUT    TYP  RCUT                                 
     0    -13.7508458     23  1.100                                             
     0     -8.2022199     23  1.100                                             
     1     -5.2854383     23  1.100                                             
     1      1.1560700     23  1.100                                             
     2     -5.4423304      7  1.100                                             
  local pseudopotential read in
  partial core-charges read in
  partial kinetic energy density read in
  atomic valenz-charges read in
  non local Contribution for L=           0  read in
    real space projection operators read in
  non local Contribution for L=           0  read in
    real space projection operators read in
  non local Contribution for L=           1  read in
    real space projection operators read in
  non local Contribution for L=           1  read in
    real space projection operators read in
    PAW grid and wavefunctions read in
 
   number of l-projection  operators is LMAX  =           4
   number of lm-projection operators is LMMAX =           8
 
 POTCAR:    PAW_PBE O_h 06Feb2004                 
   VRHFIN =O: s2p4                                                              
   LEXCH  = PE                                                                  
   EATOM  =   432.3788 eV,   31.7789 Ry                                         
                                                                                
   TITEL  = PAW_PBE O_h 06Feb2004                                               
   LULTRA =        F    use ultrasoft PP ?                                      
   IUNSCR =        1    unscreen: 0-lin 1-nonlin 2-no                           
   RPACOR =    0.800    partial core radius                                     
   POMASS =   16.000; ZVAL   =    6.000    mass and valenz                      
   RCORE  =    1.100    outmost cutoff radius                                   
   RWIGS  =    1.400; RWIGS  =    0.741    wigner-seitz radius (au A)           
   ENMAX  =  700.000; ENMIN  =  500.000 eV                                      
   ICORE  =        2    local potential                                         
   LCOR   =        T    correct aug charges                                     
   LPAW   =        T    paw PP                                                  
   EAUG   =  888.804                                                            
   DEXC   =    0.000                                                            
   RMAX   =    1.128    core radius for proj-oper                               
   RAUG   =    1.300    factor for augmentation sphere                          
   RDEP   =    1.125    radius for radial grids                                 
   RDEPT  =    1.088    core radius for aug-charge                              
                                                                                
   Atomic configuration                                                         
    4 entries                                                                   
     n  l   j            E        occ.                                          
     1  0  0.50      -514.6923   2.0000                                         
     2  0  0.50       -23.9615   2.0000                                         
     2  1  0.50        -9.0305   4.0000                                         
     3  2  1.50        -9.5241   0.0000                                         
   Description                                                                  
     l       E           TYP  RCUT    TYP  RCUT                                 
     0    -23.9615319     23  1.100                                             
     0    -25.3221145     23  1.100                                             
     1     -9.0304911     23  1.100                                             
     1     -5.4802209     23  1.100                                             
     2     -9.5240782      7  1.100                                             
  local pseudopotential read in
  partial core-charges read in
  partial kinetic energy density read in
  atomic valenz-charges read in
  non local Contribution for L=           0  read in
    real space projection operators read in
  non local Contribution for L=           0  read in
    real space projection operators read in
  non local Contribution for L=           1  read in
    real space projection operators read in
  non local Contribution for L=           1  read in
    real space projection operators read in
    PAW grid and wavefunctions read in
 
   number of l-projection  operators is LMAX  =           4
   number of lm-projection operators is LMMAX =           8
 
  PAW_PBE C_h 06Feb2004                 :
 energy of atom  1       EATOM= -147.1560
 kinetic energy error for atom=    0.0286 (will be added to EATOM!!)
  PAW_PBE O_h 06Feb2004                 :
 energy of atom  2       EATOM= -432.3788
 kinetic energy error for atom=    0.1855 (will be added to EATOM!!)
 
 
 POSCAR: CO dimer in a box                       
  positions in cartesian coordinates
  No initial velocities read in
 exchange correlation table for  LEXCH =        8
   RHO(1)=    0.500       N(1)  =     2000
   RHO(2)=  100.500       N(2)  =     4000

 VTST: version 3.2, (02/03/18)

 CHAIN: initializing optimizer
 
 OPT: Using VASP Conjugate-Gradient optimizer
 CHAIN: Read ICHAIN            0
 
 POSCAR: CO dimer in a box                       
  positions in cartesian coordinates
  No initial velocities read in
 


--------------------------------------------------------------------------------------------------------


 ion  position               nearest neighbor table
   1  0.000  0.000  0.000-   2 1.14
   2  0.000  0.000  0.143-   1 1.14
 
  LATTYP: Found a simple cubic cell.
 ALAT       =     8.0000000000
  
  Lattice vectors:
  
 A1 = (   8.0000000000,   0.0000000000,   0.0000000000)
 A2 = (   0.0000000000,   8.0000000000,   0.0000000000)
 A3 = (   0.0000000000,   0.0000000000,   8.0000000000)


Analysis of symmetry for initial positions (statically):
=====================================================================
 Subroutine PRICEL returns:
 Original cell was already a primitive cell.
 

 Routine SETGRP: Setting up the symmetry group for a 
 simple cubic supercell.


 Subroutine GETGRP returns: Found  8 space group operations
 (whereof  8 operations were pure point group operations)
 out of a pool of 48 trial point group operations.


The static configuration has the point symmetry C_4v.


Analysis of symmetry for dynamics (positions and initial velocities):
=====================================================================
 Subroutine PRICEL returns:
 Original cell was already a primitive cell.
 

 Routine SETGRP: Setting up the symmetry group for a 
 simple cubic supercell.


 Subroutine GETGRP returns: Found  8 space group operations
 (whereof  8 operations were pure point group operations)
 out of a pool of 48 trial point group operations.


The dynamic configuration has the point symmetry C_4v.


Analysis of constrained symmetry for selective dynamics:
=====================================================================
 Subroutine PRICEL returns:
 Original cell was already a primitive cell.
 

 Routine SETGRP: Setting up the symmetry group for a 
 simple cubic supercell.


 Subroutine GETGRP returns: Found  8 space group operations
 (whereof  8 operations were pure point group operations)
 out of a pool of 48 trial point group operations.


The constrained configuration has the point symmetry C_4v.


 Subroutine INISYM returns: Found  8 space group operations
 (whereof  8 operations are pure point group operations),
 and found     1 'primitive' translations

 
 
 KPOINTS: Gamma-point only                        

Automatic generation of k-mesh.
Space group operators:
 irot       det(A)        alpha          n_x          n_y          n_z        tau_x        tau_y        tau_z
    1     1.000000     0.000000     1.000000     0.000000     0.000000     0.000000     0.000000     0.000000
    2     1.000000    90.000000     0.000000     0.000000    -1.000000     0.000000     0.000000     0.000000
    3     1.000000   180.000000     0.000000     0.000000     1.000000     0.000000     0.000000     0.000000
    4     1.000000    90.000000     0.000000     0.000000     1.000000     0.000000     0.000000     0.000000
    5    -1.000000   180.000000     1.000000     0.000000     0.000000     0.000000     0.000000     0.000000
    6    -1.000000   180.000000     0.707107     0.707107     0.000000     0.000000     0.000000     0.000000
    7    -1.000000   180.000000     0.000000     1.000000     0.000000     0.000000     0.000000     0.000000
    8    -1.000000   180.000000     0.707107    -0.707107     0.000000     0.000000     0.000000     0.000000
 
 Subroutine IBZKPT returns following result:
 ===========================================
 
 Found      1 irreducible k-points:
 
 Following reciprocal coordinates:
            Coordinates               Weight
  0.000000  0.000000  0.000000      1.000000
 
 Following cartesian coordinates:
            Coordinates               Weight
  0.000000  0.000000  0.000000      1.000000
 


--------------------------------------------------------------------------------------------------------




 Dimension of arrays:
   k-points           NKPTS =      1   k-points in BZ     NKDIM =      1   number of bands    NBANDS=     10
   number of dos      NEDOS =    301   number of ions     NIONS =      2
   non local maximal  LDIM  =      4   non local SUM 2l+1 LMDIM =      8
   total plane-waves  NPLWV = 157464
   max r-space proj   IRMAX =      1   max aug-charges    IRDMAX=   2442
   dimension x,y,z NGX =    54 NGY =   54 NGZ =   54
   dimension x,y,z NGXF=   108 NGYF=  108 NGZF=  108
   support grid    NGXF=   108 NGYF=  108 NGZF=  108
   ions per type =               1   1
 NGX,Y,Z   is equivalent  to a cutoff of  11.22, 11.22, 11.22 a.u.
 NGXF,Y,Z  is equivalent  to a cutoff of  22.44, 22.44, 22.44 a.u.


 I would recommend the setting:
   dimension x,y,z NGX =    52 NGY =   52 NGZ =   52
 SYSTEM =  CO dimer in a box                       
 POSCAR =  CO dimer in a box                       

 Startparameter for this run:
   NWRITE =      2    write-flag & timer
   PREC   = normal    normal or accurate (medium, high low for compatibility)
   ISTART =      0    job   : 0-new  1-cont  2-samecut
   ICHARG =      2    charge: 1-file 2-atom 10-const
   ISPIN  =      1    spin polarized calculation?
   LNONCOLLINEAR =      F non collinear calculations
   LSORBIT =      F    spin-orbit coupling
   INIWAV =      1    electr: 0-lowe 1-rand  2-diag
   LASPH  =      F    aspherical Exc in radial PAW
   METAGGA=      F    non-selfconsistent MetaGGA calc.

 Electronic Relaxation 1
   ENCUT  =  700.0 eV  51.45 Ry    7.17 a.u.  17.26 17.26 17.26*2*pi/ulx,y,z
   ENINI  =  700.0     initial cutoff
   ENAUG  =  946.8 eV  augmentation charge cutoff
   NELM   =     60;   NELMIN=  2; NELMDL= -5     # of ELM steps 
   EDIFF  = 0.1E-03   stopping-criterion for ELM
   LREAL  =      F    real-space projection
   NLSPLINE    = F    spline interpolate recip. space projectors
   LCOMPAT=      F    compatible to vasp.4.4
   GGA_COMPAT  = T    GGA compatible to vasp.4.4-vasp.4.6
   LMAXPAW     = -100 max onsite density
   LMAXMIX     =    2 max onsite mixed and CHGCAR
   VOSKOWN=      0    Vosko Wilk Nusair interpolation
   ROPT   =    0.00000   0.00000
 Ionic relaxation
   EDIFFG = 0.1E-02   stopping-criterion for IOM
   NSW    =      5    number of steps for IOM
   NBLOCK =      1;   KBLOCK =      5    inner block; outer block 
   IBRION =      2    ionic relax: 0-MD 1-quasi-New 2-CG
   NFREE  =      1    steps in history (QN), initial steepest desc. (CG)
   ISIF   =      2    stress and relaxation
   IWAVPR =     11    prediction:  0-non 1-charg 2-wave 3-comb
   ISYM   =      2    0-nonsym 1-usesym 2-fastsym
   LCORR  =      T    Harris-Foulkes like correction to forces

   POTIM  = 0.2000    time-step for ionic-motion
   TEIN   =    0.0    initial temperature
   TEBEG  =    0.0;   TEEND  =   0.0 temperature during run
   SMASS  =  -3.00    Nose mass-parameter (am)
   estimated Nose-frequenzy (Omega)   =  0.10E-29 period in steps =****** mass=  -0.146E-26a.u.
   SCALEE = 1.0000    scale energy and forces
   NPACO  =    256;   APACO  = 16.0  distance and # of slots for P.C.
   PSTRESS=    0.0 pullay stress

  Mass of Ions in am
   POMASS =  12.01 16.00
  Ionic Valenz
   ZVAL   =   4.00  6.00
  Atomic Wigner-Seitz radii
   RWIGS  =  -1.00 -1.00
  virtual crystal weights 
   VCA    =   1.00  1.00
   NELECT =      10.0000    total number of electrons
   NUPDOWN=      -1.0000    fix difference up-down

 DOS related values:
   EMIN   =  10.00;   EMAX   =-10.00  energy-range for DOS
   EFERMI =   0.00
   ISMEAR =     0;   SIGMA  =   0.20  broadening in eV -4-tet -1-fermi 0-gaus

 Electronic relaxation 2 (details)
   IALGO  =     38    algorithm
   LDIAG  =      T    sub-space diagonalisation (order eigenvalues)
   LSUBROT=      F    optimize rotation matrix (better conditioning)
   TURBO    =      0    0=normal 1=particle mesh
   IRESTART =      0    0=no restart 2=restart with 2 vectors
   NREBOOT  =      0    no. of reboots
   NMIN     =      0    reboot dimension
   EREF     =   0.00    reference energy to select bands
   IMIX   =      4    mixing-type and parameters
     AMIX     =   0.40;   BMIX     =  1.00
     AMIX_MAG =   1.60;   BMIX_MAG =  1.00
     AMIN     =   0.10
     WC   =   100.;   INIMIX=   1;  MIXPRE=   1;  MAXMIX= -45

 Intra band minimization:
   WEIMIN = 0.0010     energy-eigenvalue tresh-hold
   EBREAK =  0.25E-05  absolut break condition
   DEPER  =   0.30     relativ break condition  

   TIME   =   0.40     timestep for ELM

  volume/ion in A,a.u.               =     256.00      1727.57
  Fermi-wavevector in a.u.,A,eV,Ry     =   0.440878  0.833138  2.644608  0.194373
  Thomas-Fermi vector in A             =   1.415836
 
 Write flags
   LWAVE  =      T    write WAVECAR
   LCHARG =      T    write CHGCAR
   LVTOT  =      F    write LOCPOT, total local potential
   LVHAR  =      F    write LOCPOT, Hartree potential only
   LELF   =      F    write electronic localiz. function (ELF)
   LORBIT =      0    0 simple, 1 ext, 2 COOP (PROOUT)


 Dipole corrections
   LMONO  =      F    monopole corrections only (constant potential shift)
   LDIPOL =      F    correct potential (dipole corrections)
   IDIPOL =      0    1-x, 2-y, 3-z, 4-all directions 
   EPSILON=  1.0000000 bulk dielectric constant

 Exchange correlation treatment:
   GGA     =    --    GGA type
   LEXCH   =     8    internal setting for exchange type
   VOSKOWN=      0    Vosko Wilk Nusair interpolation
   LHFCALC =     F    Hartree Fock is set to
   LHFONE  =     F    Hartree Fock one center treatment
   AEXX    =    0.0000 exact exchange contribution

 Linear response parameters
   LEPSILON=     F    determine dielectric tensor
   LRPA    =     F    only Hartree local field effects (RPA)
   LNABLA  =     F    use nabla operator in PAW spheres
   LVEL    =     F    velocity operator in full k-point grid
   LINTERFAST=   F  fast interpolation
   KINTER  =     0    interpolate to denser k-point grid
   CSHIFT  =0.1000    complex shift for real part using Kramers Kronig
   OMEGAMAX=  -1.0    maximum frequency
   DEG_THRESHOLD= 0.2000000E-02 threshold for treating states as degnerate
   RTIME   =    0.100 relaxation time in fs

 Orbital magnetization related:
   ORBITALMAG=     F  switch on orbital magnetization
   LCHIMAG   =     F  perturbation theory with respect to B field
   DQ        =  0.001000  dq finite difference perturbation B field



--------------------------------------------------------------------------------------------------------


 conjugate gradient relaxation of ions
   using selective dynamics as specified on POSCAR
   WARNING: If single coordinates had been selected the selection of coordinates
            is made according to the corresponding   d i r e c t   coordinates!
            Don't support selection of single cartesian coordinates -- sorry ...
  !
 charge density and potential will be updated during run
 non-spin polarized calculation
 Variant of blocked Davidson
 Davidson routine will perform the subspace rotation
 perform sub-space diagonalisation
    after iterative eigenvector-optimisation
 modified Broyden-mixing scheme, WC =      100.0
 initial mixing is a Kerker type mixing with AMIX =  0.4000 and BMIX =      1.0000
 Hartree-type preconditioning will be used
 using additional bands            5
 reciprocal scheme for non local part
 use partial core corrections
 calculate Harris-corrections to forces 
   (improved forces if not selfconsistent)
 use gradient corrections 
 use of overlap-Matrix (Vanderbilt PP)
 Gauss-broadening in eV      SIGMA  =   0.20


--------------------------------------------------------------------------------------------------------


  energy-cutoff  :      700.00
  volume of cell :      512.00
      direct lattice vectors                 reciprocal lattice vectors
     8.000000000  0.000000000  0.000000000     0.125000000  0.000000000  0.000000000
     0.000000000  8.000000000  0.000000000     0.000000000  0.125000000  0.000000000
     0.000000000  0.000000000  8.000000000     0.000000000  0.000000000  0.125000000

  length of vectors
     8.000000000  8.000000000  8.000000000     0.125000000  0.125000000  0.125000000


 
 k-points in units of 2pi/SCALE and weight: Gamma-point only                        
   0.00000000  0.00000000  0.00000000       1.000
 
 k-points in reciprocal lattice and weights: Gamma-point only                        
   0.00000000  0.00000000  0.00000000       1.000
 
 position of ions in fractional coordinates (direct lattice) 
   0.00000000  0.00000000  0.00000000
   0.00000000  0.00000000  0.14287500
 
 position of ions in cartesian coordinates  (Angst):
   0.00000000  0.00000000  0.00000000
   0.00000000  0.00000000  1.14300000
 


--------------------------------------------------------------------------------------------------------


 use seriel FFT for wavefunctions x direction half grid
 k-point  1 :   0.0000 0.0000 0.0000  plane waves:   10780

 maximum and minimum number of plane-waves per node :     10780    10780

 maximum number of plane-waves:     10780
 maximum index in each direction: 
   IXMAX=   17   IYMAX=   17   IZMAX=   17
   IXMIN=    0   IYMIN=  -17   IZMIN=  -17

 WARNING: aliasing errors must be expected set NGX to  70 to avoid them
 WARNING: aliasing errors must be expected set NGY to  70 to avoid them
 WARNING: aliasing errors must be expected set NGZ to  70 to avoid them
 aliasing errors are usually negligible using standard VASP settings
 and one can safely disregard these warnings

 serial   3D FFT for wavefunctions
 parallel 3D FFT for charge:
    minimum data exchange during FFTs selected (reduces bandwidth)


 total amount of memory used by VASP on root node    96832. kBytes
========================================================================

   base      :      30000. kBytes
   nonl-proj :       1724. kBytes
   fftplans  :      22159. kBytes
   grid      :      42083. kBytes
   one-center:          3. kBytes
   wavefun   :        863. kBytes
 
     INWAV:  cpu time    0.0000: real time    0.0003
 Broyden mixing: mesh for mixing (old mesh)
   NGX = 35   NGY = 35   NGZ = 35
  (NGX  =108   NGY  =108   NGZ  =108)
  gives a total of  42875 points

 initial charge density was supplied:
 charge density of overlapping atoms calculated
 number of electron      10.0000000 magnetization 
 keeping initial charge density in first step


--------------------------------------------------------------------------------------------------------


 Maximum index for augmentation-charges         1066 (set IRDMAX)


--------------------------------------------------------------------------------------------------------


 First call to EWALD:  gamma=   0.222
 Maximum number of real-space cells 3x 3x 3
 Maximum number of reciprocal cells 3x 3x 3

 FEWALD executed in parallel
    FEWALD:  cpu time    0.0015: real time    0.0015


----------------------------------------- Iteration    1(   1)  ---------------------------------------


    POTLOK:  cpu time    0.3726: real time    0.3748
    SETDIJ:  cpu time    0.0022: real time    0.0022
     EDDAV:  cpu time    0.1066: real time    0.1087
       DOS:  cpu time    0.0003: real time    0.0005
    --------------------------------------------
      LOOP:  cpu time    0.4826: real time    0.4875

 eigenvalue-minimisations  :    20
 total energy-change (2. order) : 0.8985916E+02  (-0.2997241E+03)
 number of electron      10.0000000 magnetization 
 augmentation part       10.0000000 magnetization 

 Free energy of the ion-electron system (eV)
  ---------------------------------------------------
  alpha Z        PSCENC =         0.57153965
  Ewald energy   TEWEN  =        48.90784304
  -Hartree energ DENC   =      -511.30202052
  -exchange      EXHF   =         0.00000000
  -V(xc)+E(xc)   XCENC  =        31.57058753
  PAW double counting   =       461.48086075     -457.43960020
  entropy T*S    EENTRO =        -0.00100877
  eigenvalues    EBANDS =       -63.24982116
  atomic energy  EATOM  =       579.32078282
  Solvation  Ediel_sol  =         0.00000000
  ---------------------------------------------------
  free energy    TOTEN  =        89.85916314 eV

  energy without entropy =       89.86017190  energy(sigma->0) =       89.85966752


--------------------------------------------------------------------------------------------------------




----------------------------------------- Iteration    1(   2)  ---------------------------------------


     EDDAV:  cpu time    0.1511: real time    0.1530
       DOS:  cpu time    0.0001: real time    0.0001
    --------------------------------------------
      LOOP:  cpu time    0.1523: real time    0.1544

 eigenvalue-minimisations  :    36
 total energy-change (2. order) :-0.7266388E+02  (-0.7179608E+02)
 number of electron      10.0000000 magnetization 
 augmentation part       10.0000000 magnetization 

 Free energy of the ion-electron system (eV)
  ---------------------------------------------------
  alpha Z        PSCENC =         0.57153965
  Ewald energy   TEWEN  =        48.90784304
  -Hartree energ DENC   =      -511.30202052
  -exchange      EXHF   =         0.00000000
  -V(xc)+E(xc)   XCENC  =        31.57058753
  PAW double counting   =       461.48086075     -457.43960020
  entropy T*S    EENTRO =        -0.00000000
  eigenvalues    EBANDS =      -135.91470676
  atomic energy  EATOM  =       579.32078282
  Solvation  Ediel_sol  =         0.00000000
  ---------------------------------------------------
  free energy    TOTEN  =        17.19528631 eV

  energy without entropy =       17.19528631  energy(sigma->0) =       17.19528631


--------------------------------------------------------------------------------------------------------




----------------------------------------- Iteration    1(   3)  ---------------------------------------


     EDDAV:  cpu time    0.1664: real time    0.1669
       DOS:  cpu time    0.0001: real time    0.0001
    --------------------------------------------
      LOOP:  cpu time    0.1674: real time    0.1681

 eigenvalue-minimisations  :    32
 total energy-change (2. order) :-0.3045615E+02  (-0.3044288E+02)
 number of electron      10.0000000 magnetization 
 augmentation part       10.0000000 magnetization 

 Free energy of the ion-electron system (eV)
  ---------------------------------------------------
  alpha Z        PSCENC =         0.57153965
  Ewald energy   TEWEN  =        48.90784304
  -Hartree energ DENC   =      -511.30202052
  -exchange      EXHF   =         0.00000000
  -V(xc)+E(xc)   XCENC  =        31.57058753
  PAW double counting   =       461.48086075     -457.43960020
  entropy T*S    EENTRO =        -0.00000000
  eigenvalues    EBANDS =      -166.37086102
  atomic energy  EATOM  =       579.32078282
  Solvation  Ediel_sol  =         0.00000000
  ---------------------------------------------------
  free energy    TOTEN  =       -13.26086795 eV

  energy without entropy =      -13.26086795  energy(sigma->0) =      -13.26086795


--------------------------------------------------------------------------------------------------------




----------------------------------------- Iteration    1(   4)  ---------------------------------------


     EDDAV:  cpu time    0.1337: real time    0.1353
       DOS:  cpu time    0.0000: real time    0.0000
    --------------------------------------------
      LOOP:  cpu time    0.1347: real time    0.1365

 eigenvalue-minimisations  :    32
 total energy-change (2. order) :-0.2472622E+01  (-0.2472495E+01)
 number of electron      10.0000000 magnetization 
 augmentation part       10.0000000 magnetization 

 Free energy of the ion-electron system (eV)
  ---------------------------------------------------
  alpha Z        PSCENC =         0.57153965
  Ewald energy   TEWEN  =        48.90784304
  -Hartree energ DENC   =      -511.30202052
  -exchange      EXHF   =         0.00000000
  -V(xc)+E(xc)   XCENC  =        31.57058753
  PAW double counting   =       461.48086075     -457.43960020
  entropy T*S    EENTRO =        -0.00000000
  eigenvalues    EBANDS =      -168.84348344
  atomic energy  EATOM  =       579.32078282
  Solvation  Ediel_sol  =         0.00000000
  ---------------------------------------------------
  free energy    TOTEN  =       -15.73349038 eV

  energy without entropy =      -15.73349038  energy(sigma->0) =      -15.73349038


--------------------------------------------------------------------------------------------------------




----------------------------------------- Iteration    1(   5)  ---------------------------------------


     EDDAV:  cpu time    0.1279: real time    0.1282
       DOS:  cpu time    0.0000: real time    0.0000
    CHARGE:  cpu time    0.0424: real time    0.0425
    MIXING:  cpu time    0.0102: real time    0.0103
    --------------------------------------------
      LOOP:  cpu time    0.1818: real time    0.1826

 eigenvalue-minimisations  :    30
 total energy-change (2. order) :-0.7595472E-02  (-0.7595200E-02)
 number of electron      10.0000003 magnetization 
 augmentation part        0.0099208 magnetization 

 Broyden mixing:
  rms(total) = 0.29667E+01    rms(broyden)= 0.29667E+01
  rms(prec ) = 0.30186E+01
  weight for this iteration     100.00

 Free energy of the ion-electron system (eV)
  ---------------------------------------------------
  alpha Z        PSCENC =         0.57153965
  Ewald energy   TEWEN  =        48.90784304
  -Hartree energ DENC   =      -511.30202052
  -exchange      EXHF   =         0.00000000
  -V(xc)+E(xc)   XCENC  =        31.57058753
  PAW double counting   =       461.48086075     -457.43960020
  entropy T*S    EENTRO =        -0.00000000
  eigenvalues    EBANDS =      -168.85107891
  atomic energy  EATOM  =       579.32078282
  Solvation  Ediel_sol  =         0.00000000
  ---------------------------------------------------
  free energy    TOTEN  =       -15.74108585 eV

  energy without entropy =      -15.74108585  energy(sigma->0) =      -15.74108585


--------------------------------------------------------------------------------------------------------




----------------------------------------- Iteration    1(   6)  ---------------------------------------


    POTLOK:  cpu time    0.3552: real time    0.3571
    SETDIJ:  cpu time    0.0016: real time    0.0016
     EDDAV:  cpu time    0.1006: real time    0.1007
       DOS:  cpu time    0.0001: real time    0.0001
    CHARGE:  cpu time    0.0384: real time    0.0384
    MIXING:  cpu time    0.0105: real time    0.0106
    --------------------------------------------
      LOOP:  cpu time    0.5077: real time    0.5100

 eigenvalue-minimisations  :    20
 total energy-change (2. order) : 0.6441186E+00  (-0.3276214E+00)
 number of electron      10.0000002 magnetization 
 augmentation part       -0.0153139 magnetization 

 Broyden mixing:
  rms(total) = 0.19998E+01    rms(broyden)= 0.19997E+01
  rms(prec ) = 0.20170E+01
  weight for this iteration     100.00

 eigenvalues of (default mixing * dielectric matrix)
  average eigenvalue GAMMA=   2.4011
  2.4011

 Free energy of the ion-electron system (eV)
  ---------------------------------------------------
  alpha Z        PSCENC =         0.57153965
  Ewald energy   TEWEN  =        48.90784304
  -Hartree energ DENC   =      -525.27590665
  -exchange      EXHF   =         0.00000000
  -V(xc)+E(xc)   XCENC  =        32.36519363
  PAW double counting   =      2230.92160332    -2227.07660109
  entropy T*S    EENTRO =        -0.00000000
  eigenvalues    EBANDS =      -154.83142196
  atomic energy  EATOM  =       579.32078282
  Solvation  Ediel_sol  =         0.00000000
  ---------------------------------------------------
  free energy    TOTEN  =       -15.09696723 eV

  energy without entropy =      -15.09696723  energy(sigma->0) =      -15.09696723


--------------------------------------------------------------------------------------------------------




----------------------------------------- Iteration    1(   7)  ---------------------------------------


    POTLOK:  cpu time    0.3437: real time    0.3442
    SETDIJ:  cpu time    0.0015: real time    0.0016
     EDDAV:  cpu time    0.1304: real time    0.1306
       DOS:  cpu time    0.0001: real time    0.0001
    CHARGE:  cpu time    0.0375: real time    0.0375
    MIXING:  cpu time    0.0108: real time    0.0108
    --------------------------------------------
      LOOP:  cpu time    0.5254: real time    0.5264

 eigenvalue-minimisations  :    30
 total energy-change (2. order) : 0.5472547E-01  (-0.2670570E+00)
 number of electron      10.0000002 magnetization 
 augmentation part        0.0026172 magnetization 

 Broyden mixing:
  rms(total) = 0.26843E+00    rms(broyden)= 0.26836E+00
  rms(prec ) = 0.37627E+00
  weight for this iteration     100.00

 eigenvalues of (default mixing * dielectric matrix)
  average eigenvalue GAMMA=   1.5554
  0.8124  2.2983

 Free energy of the ion-electron system (eV)
  ---------------------------------------------------
  alpha Z        PSCENC =         0.57153965
  Ewald energy   TEWEN  =        48.90784304
  -Hartree energ DENC   =      -529.73356504
  -exchange      EXHF   =         0.00000000
  -V(xc)+E(xc)   XCENC  =        32.67563809
  PAW double counting   =      7384.03333053    -7380.19785892
  entropy T*S    EENTRO =        -0.00000000
  eigenvalues    EBANDS =      -150.61995193
  atomic energy  EATOM  =       579.32078282
  Solvation  Ediel_sol  =         0.00000000
  ---------------------------------------------------
  free energy    TOTEN  =       -15.04224176 eV

  energy without entropy =      -15.04224176  energy(sigma->0) =      -15.04224176


--------------------------------------------------------------------------------------------------------




----------------------------------------- Iteration    1(   8)  ---------------------------------------


    POTLOK:  cpu time    0.3579: real time    0.3597
    SETDIJ:  cpu time    0.0017: real time    0.0017
     EDDAV:  cpu time    0.1107: real time    0.1112
       DOS:  cpu time    0.0001: real time    0.0001
    CHARGE:  cpu time    0.0390: real time    0.0391
    MIXING:  cpu time    0.0131: real time    0.0131
    --------------------------------------------
      LOOP:  cpu time    0.5238: real time    0.5264

 eigenvalue-minimisations  :    24
 total energy-change (2. order) : 0.1217678E+00  (-0.8364508E-01)
 number of electron      10.0000002 magnetization 
 augmentation part       -0.0104503 magnetization 

 Broyden mixing:
  rms(total) = 0.23017E+00    rms(broyden)= 0.23012E+00
  rms(prec ) = 0.23358E+00
  weight for this iteration     100.00

 eigenvalues of (default mixing * dielectric matrix)
  average eigenvalue GAMMA=   1.3833
  2.6131  0.8086  0.7280

 Free energy of the ion-electron system (eV)
  ---------------------------------------------------
  alpha Z        PSCENC =         0.57153965
  Ewald energy   TEWEN  =        48.90784304
  -Hartree energ DENC   =      -532.56541787
  -exchange      EXHF   =         0.00000000
  -V(xc)+E(xc)   XCENC  =        32.83113921
  PAW double counting   =      7986.54360537    -7982.74373611
  entropy T*S    EENTRO =        -0.00000000
  eigenvalues    EBANDS =      -147.78623009
  atomic energy  EATOM  =       579.32078282
  Solvation  Ediel_sol  =         0.00000000
  ---------------------------------------------------
  free energy    TOTEN  =       -14.92047397 eV

  energy without entropy =      -14.92047397  energy(sigma->0) =      -14.92047397


--------------------------------------------------------------------------------------------------------




----------------------------------------- Iteration    1(   9)  ---------------------------------------


    POTLOK:  cpu time    0.3384: real time    0.3398
    SETDIJ:  cpu time    0.0028: real time    0.0028
     EDDAV:  cpu time    0.1233: real time    0.1234
       DOS:  cpu time    0.0001: real time    0.0001
    CHARGE:  cpu time    0.0377: real time    0.0384
    MIXING:  cpu time    0.0137: real time    0.0143
    --------------------------------------------
      LOOP:  cpu time    0.5174: real time    0.5203

 eigenvalue-minimisations  :    28
 total energy-change (2. order) :-0.2455329E-02  (-0.3169059E-02)
 number of electron      10.0000002 magnetization 
 augmentation part       -0.0109100 magnetization 

 Broyden mixing:
  rms(total) = 0.36499E-01    rms(broyden)= 0.36473E-01
  rms(prec ) = 0.46398E-01
  weight for this iteration     100.00

 eigenvalues of (default mixing * dielectric matrix)
  average eigenvalue GAMMA=   1.3286
  2.4518  1.1817  0.8405  0.8405

 Free energy of the ion-electron system (eV)
  ---------------------------------------------------
  alpha Z        PSCENC =         0.57153965
  Ewald energy   TEWEN  =        48.90784304
  -Hartree energ DENC   =      -532.57967873
  -exchange      EXHF   =         0.00000000
  -V(xc)+E(xc)   XCENC  =        32.83599558
  PAW double counting   =      8756.30258479    -8752.49202957
  entropy T*S    EENTRO =        -0.00000000
  eigenvalues    EBANDS =      -147.78996689
  atomic energy  EATOM  =       579.32078282
  Solvation  Ediel_sol  =         0.00000000
  ---------------------------------------------------
  free energy    TOTEN  =       -14.92292930 eV

  energy without entropy =      -14.92292930  energy(sigma->0) =      -14.92292930


--------------------------------------------------------------------------------------------------------




----------------------------------------- Iteration    1(  10)  ---------------------------------------


    POTLOK:  cpu time    0.3363: real time    0.3384
    SETDIJ:  cpu time    0.0015: real time    0.0015
     EDDAV:  cpu time    0.1074: real time    0.1075
       DOS:  cpu time    0.0000: real time    0.0000
    CHARGE:  cpu time    0.0374: real time    0.0374
    MIXING:  cpu time    0.0142: real time    0.0142
    --------------------------------------------
      LOOP:  cpu time    0.4983: real time    0.5008

 eigenvalue-minimisations  :    24
 total energy-change (2. order) : 0.2807480E-03  (-0.7759786E-03)
 number of electron      10.0000002 magnetization 
 augmentation part       -0.0099808 magnetization 

 Broyden mixing:
  rms(total) = 0.43438E-01    rms(broyden)= 0.43436E-01
  rms(prec ) = 0.45173E-01
  weight for this iteration     100.00

 eigenvalues of (default mixing * dielectric matrix)
  average eigenvalue GAMMA=   1.5295
  2.2767  2.2767  1.6115  0.7414  0.7414

 Free energy of the ion-electron system (eV)
  ---------------------------------------------------
  alpha Z        PSCENC =         0.57153965
  Ewald energy   TEWEN  =        48.90784304
  -Hartree energ DENC   =      -531.75437302
  -exchange      EXHF   =         0.00000000
  -V(xc)+E(xc)   XCENC  =        32.78355789
  PAW double counting   =      8506.44220893    -8502.61806989
  entropy T*S    EENTRO =        -0.00000000
  eigenvalues    EBANDS =      -148.57613797
  atomic energy  EATOM  =       579.32078282
  Solvation  Ediel_sol  =         0.00000000
  ---------------------------------------------------
  free energy    TOTEN  =       -14.92264855 eV

  energy without entropy =      -14.92264855  energy(sigma->0) =      -14.92264855


--------------------------------------------------------------------------------------------------------




----------------------------------------- Iteration    1(  11)  ---------------------------------------


    POTLOK:  cpu time    0.3352: real time    0.3369
    SETDIJ:  cpu time    0.0016: real time    0.0016
     EDDAV:  cpu time    0.1028: real time    0.1034
       DOS:  cpu time    0.0001: real time    0.0001
    CHARGE:  cpu time    0.0385: real time    0.0385
    MIXING:  cpu time    0.0155: real time    0.0160
    --------------------------------------------
      LOOP:  cpu time    0.4951: real time    0.4981

 eigenvalue-minimisations  :    22
 total energy-change (2. order) :-0.1578813E-02  (-0.5877038E-04)
 number of electron      10.0000002 magnetization 
 augmentation part       -0.0099212 magnetization 

 Broyden mixing:
  rms(total) = 0.85323E-02    rms(broyden)= 0.85317E-02
  rms(prec ) = 0.11350E-01
  weight for this iteration     100.00

 eigenvalues of (default mixing * dielectric matrix)
  average eigenvalue GAMMA=   1.4141
  2.2684  2.2684  1.5551  0.7718  0.7718  0.8489

 Free energy of the ion-electron system (eV)
  ---------------------------------------------------
  alpha Z        PSCENC =         0.57153965
  Ewald energy   TEWEN  =        48.90784304
  -Hartree energ DENC   =      -531.87262623
  -exchange      EXHF   =         0.00000000
  -V(xc)+E(xc)   XCENC  =        32.78478587
  PAW double counting   =      8542.02303581    -8538.19716219
  entropy T*S    EENTRO =        -0.00000000
  eigenvalues    EBANDS =      -148.46242613
  atomic energy  EATOM  =       579.32078282
  Solvation  Ediel_sol  =         0.00000000
  ---------------------------------------------------
  free energy    TOTEN  =       -14.92422737 eV

  energy without entropy =      -14.92422737  energy(sigma->0) =      -14.92422737


--------------------------------------------------------------------------------------------------------




----------------------------------------- Iteration    1(  12)  ---------------------------------------


    POTLOK:  cpu time    0.3350: real time    0.3362
    SETDIJ:  cpu time    0.0015: real time    0.0015
     EDDAV:  cpu time    0.1077: real time    0.1079
       DOS:  cpu time    0.0001: real time    0.0001
    CHARGE:  cpu time    0.0374: real time    0.0374
    MIXING:  cpu time    0.0154: real time    0.0154
    --------------------------------------------
      LOOP:  cpu time    0.4985: real time    0.5002

 eigenvalue-minimisations  :    24
 total energy-change (2. order) :-0.5063805E-03  (-0.1975250E-04)
 number of electron      10.0000002 magnetization 
 augmentation part       -0.0101038 magnetization 

 Broyden mixing:
  rms(total) = 0.56260E-02    rms(broyden)= 0.56250E-02
  rms(prec ) = 0.77859E-02
  weight for this iteration     100.00

 eigenvalues of (default mixing * dielectric matrix)
  average eigenvalue GAMMA=   1.4990
  2.5338  2.3662  1.5375  1.5375  0.7553  0.7553  1.0078

 Free energy of the ion-electron system (eV)
  ---------------------------------------------------
  alpha Z        PSCENC =         0.57153965
  Ewald energy   TEWEN  =        48.90784304
  -Hartree energ DENC   =      -531.93258168
  -exchange      EXHF   =         0.00000000
  -V(xc)+E(xc)   XCENC  =        32.78697923
  PAW double counting   =      8522.48791463    -8518.66241425
  entropy T*S    EENTRO =        -0.00000000
  eigenvalues    EBANDS =      -148.40479718
  atomic energy  EATOM  =       579.32078282
  Solvation  Ediel_sol  =         0.00000000
  ---------------------------------------------------
  free energy    TOTEN  =       -14.92473375 eV

  energy without entropy =      -14.92473375  energy(sigma->0) =      -14.92473375


--------------------------------------------------------------------------------------------------------




----------------------------------------- Iteration    1(  13)  ---------------------------------------


    POTLOK:  cpu time    0.3319: real time    0.3376
    SETDIJ:  cpu time    0.0015: real time    0.0015
     EDDAV:  cpu time    0.0958: real time    0.0966
       DOS:  cpu time    0.0011: real time    0.0011
    CHARGE:  cpu time    0.0373: real time    0.0373
    MIXING:  cpu time    0.0179: real time    0.0183
    --------------------------------------------
      LOOP:  cpu time    0.4870: real time    0.4943

 eigenvalue-minimisations  :    20
 total energy-change (2. order) :-0.1356375E-02  (-0.1884273E-04)
 number of electron      10.0000002 magnetization 
 augmentation part       -0.0101743 magnetization 

 Broyden mixing:
  rms(total) = 0.48991E-02    rms(broyden)= 0.48987E-02
  rms(prec ) = 0.54706E-02
  weight for this iteration     100.00

 eigenvalues of (default mixing * dielectric matrix)
  average eigenvalue GAMMA=   1.5960
  3.3694  2.3760  1.7905  1.5903  1.2467  0.7566  0.7566  0.8823

 Free energy of the ion-electron system (eV)
  ---------------------------------------------------
  alpha Z        PSCENC =         0.57153965
  Ewald energy   TEWEN  =        48.90784304
  -Hartree energ DENC   =      -532.08518607
  -exchange      EXHF   =         0.00000000
  -V(xc)+E(xc)   XCENC  =        32.79227538
  PAW double counting   =      8563.32851280    -8559.50242032
  entropy T*S    EENTRO =        -0.00000000
  eigenvalues    EBANDS =      -148.25943742
  atomic energy  EATOM  =       579.32078282
  Solvation  Ediel_sol  =         0.00000000
  ---------------------------------------------------
  free energy    TOTEN  =       -14.92609012 eV

  energy without entropy =      -14.92609012  energy(sigma->0) =      -14.92609012


--------------------------------------------------------------------------------------------------------




----------------------------------------- Iteration    1(  14)  ---------------------------------------


    POTLOK:  cpu time    0.3273: real time    0.3339
    SETDIJ:  cpu time    0.0016: real time    0.0016
     EDDAV:  cpu time    0.1083: real time    0.1110
       DOS:  cpu time    0.0001: real time    0.0001
    CHARGE:  cpu time    0.0375: real time    0.0376
    MIXING:  cpu time    0.0167: real time    0.0167
    --------------------------------------------
      LOOP:  cpu time    0.4928: real time    0.5024

 eigenvalue-minimisations  :    24
 total energy-change (2. order) :-0.5205924E-03  (-0.5962687E-05)
 number of electron      10.0000002 magnetization 
 augmentation part       -0.0101436 magnetization 

 Broyden mixing:
  rms(total) = 0.30548E-02    rms(broyden)= 0.30548E-02
  rms(prec ) = 0.32573E-02
  weight for this iteration     100.00

 eigenvalues of (default mixing * dielectric matrix)
  average eigenvalue GAMMA=   1.7499
  3.2243  2.6312  2.6312  2.2486  1.5149  0.7558  0.7558  1.0862  0.9010

 Free energy of the ion-electron system (eV)
  ---------------------------------------------------
  alpha Z        PSCENC =         0.57153965
  Ewald energy   TEWEN  =        48.90784304
  -Hartree energ DENC   =      -532.12182624
  -exchange      EXHF   =         0.00000000
  -V(xc)+E(xc)   XCENC  =        32.79274692
  PAW double counting   =      8549.57999845    -8545.75388302
  entropy T*S    EENTRO =        -0.00000000
  eigenvalues    EBANDS =      -148.22381233
  atomic energy  EATOM  =       579.32078282
  Solvation  Ediel_sol  =         0.00000000
  ---------------------------------------------------
  free energy    TOTEN  =       -14.92661072 eV

  energy without entropy =      -14.92661072  energy(sigma->0) =      -14.92661072


--------------------------------------------------------------------------------------------------------




----------------------------------------- Iteration    1(  15)  ---------------------------------------


    POTLOK:  cpu time    0.3309: real time    0.3324
    SETDIJ:  cpu time    0.0015: real time    0.0015
     EDDAV:  cpu time    0.1074: real time    0.1075
       DOS:  cpu time    0.0001: real time    0.0001
    CHARGE:  cpu time    0.0373: real time    0.0373
    MIXING:  cpu time    0.0195: real time    0.0201
    --------------------------------------------
      LOOP:  cpu time    0.4982: real time    0.5006

 eigenvalue-minimisations  :    24
 total energy-change (2. order) :-0.3505239E-03  (-0.4443283E-05)
 number of electron      10.0000002 magnetization 
 augmentation part       -0.0101263 magnetization 

 Broyden mixing:
  rms(total) = 0.94685E-03    rms(broyden)= 0.94678E-03
  rms(prec ) = 0.10039E-02
  weight for this iteration     100.00

 eigenvalues of (default mixing * dielectric matrix)
  average eigenvalue GAMMA=   1.7872
  5.1575  2.3879  2.3879  2.1239  1.5298  1.0115  1.0115  0.7569  0.7569  0.7478

 Free energy of the ion-electron system (eV)
  ---------------------------------------------------
  alpha Z        PSCENC =         0.57153965
  Ewald energy   TEWEN  =        48.90784304
  -Hartree energ DENC   =      -532.12467064
  -exchange      EXHF   =         0.00000000
  -V(xc)+E(xc)   XCENC  =        32.79209485
  PAW double counting   =      8545.91216155    -8542.08613376
  entropy T*S    EENTRO =        -0.00000000
  eigenvalues    EBANDS =      -148.22057876
  atomic energy  EATOM  =       579.32078282
  Solvation  Ediel_sol  =         0.00000000
  ---------------------------------------------------
  free energy    TOTEN  =       -14.92696124 eV

  energy without entropy =      -14.92696124  energy(sigma->0) =      -14.92696124


--------------------------------------------------------------------------------------------------------




----------------------------------------- Iteration    1(  16)  ---------------------------------------


    POTLOK:  cpu time    0.3321: real time    0.3329
    SETDIJ:  cpu time    0.0015: real time    0.0015
     EDDAV:  cpu time    0.1026: real time    0.1027
       DOS:  cpu time    0.0001: real time    0.0001
    --------------------------------------------
      LOOP:  cpu time    0.4375: real time    0.4386

 eigenvalue-minimisations  :    22
 total energy-change (2. order) :-0.2322396E-04  (-0.8504794E-07)
 number of electron      10.0000002 magnetization 
 augmentation part       -0.0101263 magnetization 

 Free energy of the ion-electron system (eV)
  ---------------------------------------------------
  alpha Z        PSCENC =         0.57153965
  Ewald energy   TEWEN  =        48.90784304
  -Hartree energ DENC   =      -532.12360226
  -exchange      EXHF   =         0.00000000
  -V(xc)+E(xc)   XCENC  =        32.79198265
  PAW double counting   =      8544.84051304    -8541.01446221
  entropy T*S    EENTRO =        -0.00000000
  eigenvalues    EBANDS =      -148.22158120
  atomic energy  EATOM  =       579.32078282
  Solvation  Ediel_sol  =         0.00000000
  ---------------------------------------------------
  free energy    TOTEN  =       -14.92698446 eV

  energy without entropy =      -14.92698446  energy(sigma->0) =      -14.92698446


--------------------------------------------------------------------------------------------------------




 average (electrostatic) potential at core
  the test charge radii are     0.5770  0.5955
  (the norm of the test charge is              1.0000)
       1 -88.8553       2-122.2881
 
 
 
 E-fermi :  -7.7805     XC(G=0):  -1.1821     alpha+bet : -0.3665


 k-point     1 :       0.0000    0.0000    0.0000
  band No.  band energies     occupation 
      1     -28.8283      2.00000
      2     -13.7841      2.00000
      3     -11.3825      2.00000
      4     -11.3825      2.00000
      5      -8.7335      2.00000
      6      -1.7835      0.00000
      7      -1.7835      0.00000
      8      -0.2230      0.00000
      9       1.7514      0.00000
     10       1.9158      0.00000


--------------------------------------------------------------------------------------------------------


 soft charge-density along one line, spin component           1
         0         1         2         3         4         5         6         7         8         9
 total charge-density along one line
 
 pseudopotential strength for first ion, spin component:           1
 12.823  21.581  -0.000   0.049   0.000  -0.000   0.087   0.000
 21.581  36.321  -0.000   0.082   0.000  -0.000   0.146   0.000
 -0.000  -0.000  -3.223   0.000   0.000  -5.780   0.000   0.000
  0.049   0.082   0.000  -3.218   0.000   0.000  -5.773   0.000
  0.000   0.000   0.000   0.000  -3.223   0.000   0.000  -5.780
 -0.000  -0.000  -5.780   0.000   0.000 -10.344   0.000   0.000
  0.087   0.146   0.000  -5.773   0.000   0.000 -10.332   0.000
  0.000   0.000   0.000   0.000  -5.780   0.000   0.000 -10.344
 total augmentation occupancy for first ion, spin component:           1
  6.933  -2.445   0.000   6.427  -0.000   0.000  -2.942  -0.000
 -2.445   1.107   0.000  -3.321   0.000   0.000   1.401   0.000
  0.000  -0.000   3.175   0.000   0.000  -1.020   0.000   0.000
  6.427  -3.321   0.000  12.367  -0.000   0.000  -4.752   0.000
  0.000  -0.000   0.000   0.000   3.175   0.000   0.000  -1.020
  0.000   0.000  -1.020   0.000   0.000   0.327   0.000   0.000
 -2.942   1.401   0.000  -4.752   0.000   0.000   1.901  -0.000
 -0.000   0.000   0.000   0.000  -1.020   0.000  -0.000   0.327


------------------------ aborting loop because EDIFF is reached ----------------------------------------


    CHARGE:  cpu time    0.0370: real time    0.0371
    FORLOC:  cpu time    0.0176: real time    0.0176
    FORNL :  cpu time    0.0069: real time    0.0069
    STRESS:  cpu time    0.0649: real time    0.0651
    FORCOR:  cpu time    0.3594: real time    0.3601
    FORHAR:  cpu time    0.0871: real time    0.0986
    MIXING:  cpu time    0.0171: real time    0.0171
    OFIELD:  cpu time    0.0001: real time    0.0001

  FORCE on cell =-STRESS in cart. coord.  units (eV):
  Direction    XX          YY          ZZ          XY          YZ          ZX
  --------------------------------------------------------------------------------------
  Alpha Z     0.57154     0.57154     0.57154
  Ewald     -86.00472   -86.00472   220.91723    -0.00000     0.00000     0.00000
  Hartree   140.37447   140.37447   251.36309    -0.00000    -0.00000    -0.00000
  E(xc)     -45.83275   -45.83275   -45.04842    -0.00000    -0.00000    -0.00000
  Local    -254.63194  -254.63194  -653.89158    -0.00000     0.00000    -0.00000
  n-local    -2.46943    -2.46942    -7.21063     0.00000     0.00000     0.00000
  augment     0.45310     0.45310     0.66640     0.00000     0.00000     0.00000
  Kinetic   246.10497   246.10493   230.08467    -0.00000    -0.00000    -0.00000
  Fock        0.00000     0.00000     0.00000     0.00000     0.00000     0.00000
  -------------------------------------------------------------------------------------
  Total      -1.43477    -1.43477    -2.54769     0.00000     0.00000     0.00000
  in kB      -4.48976    -4.48976    -7.97237     0.00000     0.00000     0.00000
  external pressure =       -5.65 kB  Pullay stress =        0.00 kB


 VOLUME and BASIS-vectors are now :
 -----------------------------------------------------------------------------
  energy-cutoff  :      700.00
  volume of cell :      512.00
      direct lattice vectors                 reciprocal lattice vectors
     8.000000000  0.000000000  0.000000000     0.125000000  0.000000000  0.000000000
     0.000000000  8.000000000  0.000000000     0.000000000  0.125000000  0.000000000
     0.000000000  0.000000000  8.000000000     0.000000000  0.000000000  0.125000000

  length of vectors
     8.000000000  8.000000000  8.000000000     0.125000000  0.125000000  0.125000000


 FORCES acting on ions
    electron-ion (+dipol)            ewald-force                    non-local-force                 convergence-correction
 -----------------------------------------------------------------------------------------------
   0.493E-14 0.121E-13 0.235E+03   -.112E-15 -.589E-16 -.261E+03   0.529E-22 -.529E-22 0.270E+02   0.110E-13 0.223E-13 0.196E-03
   -.258E-14 0.447E-15 -.211E+03   0.149E-15 0.115E-15 0.261E+03   -.265E-22 0.265E-22 -.513E+02   -.928E-14 0.157E-13 -.405E-02
 -----------------------------------------------------------------------------------------------
   0.235E-14 0.126E-13 0.243E+02   0.369E-16 0.557E-16 0.000E+00   0.265E-22 -.265E-22 -.243E+02   0.174E-14 0.380E-13 -.386E-02
 
 
 POSITION                                       TOTAL-FORCE (eV/Angst)
 -----------------------------------------------------------------------------------
      0.00000      0.00000      0.00000         0.000000      0.000000      0.868399
      0.00000      0.00000      1.14300         0.000000      0.000000     -0.868399
 -----------------------------------------------------------------------------------
    total drift:                                0.000000      0.000000     -0.002585


--------------------------------------------------------------------------------------------------------



  FREE ENERGIE OF THE ION-ELECTRON SYSTEM (eV)
  ---------------------------------------------------
  free  energy   TOTEN  =       -14.92698446 eV

  energy  without entropy=      -14.92698446  energy(sigma->0) =      -14.92698446
 


--------------------------------------------------------------------------------------------------------


    POTLOK:  cpu time    0.3965: real time    0.4001


--------------------------------------------------------------------------------------------------------


 stress matrix after NEB project (eV)
     -1.43477      0.00000      0.00000
      0.00000     -1.43477      0.00000
      0.00000      0.00000     -2.54769
  FORCES: max atom, RMS     0.868399    0.868399
  FORCE total and by dimension    1.228101    0.868399
  Stress total and by dimension    3.256972    2.547692


--------------------------------------------------------------------------------------------------------


    WAVPRE:  cpu time    0.0843: real time    0.0850
 FEWALD executed in parallel
    FEWALD:  cpu time    0.0007: real time    0.0007
    ORTHCH:  cpu time    0.0029: real time    0.0029
     LOOP+:  cpu time   10.3017: real time   10.3798


----------------------------------------- Iteration    2(   1)  ---------------------------------------


    POTLOK:  cpu time    0.3304: real time    0.3326
    SETDIJ:  cpu time    0.0016: real time    0.0016
     EDDAV:  cpu time    0.1327: real time    0.1351
       DOS:  cpu time    0.0001: real time    0.0001
    CHARGE:  cpu time    0.0391: real time    0.0391
    MIXING:  cpu time    0.0113: real time    0.0113
    --------------------------------------------
      LOOP:  cpu time    0.5161: real time    0.5210

 eigenvalue-minimisations  :    20
 total energy-change (2. order) : 0.3216314E-01  (-0.6082552E+00)
 number of electron      10.0000003 magnetization 
 augmentation part       -0.0074900 magnetization 

 Broyden mixing:
  rms(total) = 0.51170E+00    rms(broyden)= 0.51167E+00
  rms(prec ) = 0.51435E+00
  weight for this iteration     100.00

 Free energy of the ion-electron system (eV)
  ---------------------------------------------------
  alpha Z        PSCENC =         0.57153965
  Ewald energy   TEWEN  =        57.92836072
  -Hartree energ DENC   =      -537.32416096
  -exchange      EXHF   =         0.00000000
  -V(xc)+E(xc)   XCENC  =        32.94985170
  PAW double counting   =      8541.88752995    -8538.06146505
  entropy T*S    EENTRO =        -0.00000000
  eigenvalues    EBANDS =      -152.16723693
  atomic energy  EATOM  =       579.32078282
  Solvation  Ediel_sol  =         0.00000000
  ---------------------------------------------------
  free energy    TOTEN  =       -14.89479810 eV

  energy without entropy =      -14.89479810  energy(sigma->0) =      -14.89479810


--------------------------------------------------------------------------------------------------------




----------------------------------------- Iteration    2(   2)  ---------------------------------------


    POTLOK:  cpu time    0.3355: real time    0.3373
    SETDIJ:  cpu time    0.0016: real time    0.0016
     EDDAV:  cpu time    0.0976: real time    0.0996
       DOS:  cpu time    0.0001: real time    0.0001
    CHARGE:  cpu time    0.0374: real time    0.0375
    MIXING:  cpu time    0.0101: real time    0.0101
    --------------------------------------------
      LOOP:  cpu time    0.4837: real time    0.4878

 eigenvalue-minimisations  :    20
 total energy-change (2. order) : 0.1684789E-02  (-0.7353546E-02)
 number of electron      10.0000003 magnetization 
 augmentation part       -0.0049909 magnetization 

 Broyden mixing:
  rms(total) = 0.77434E-01    rms(broyden)= 0.77424E-01
  rms(prec ) = 0.83824E-01
  weight for this iteration     100.00

 eigenvalues of (default mixing * dielectric matrix)
  average eigenvalue GAMMA=   0.9658
  0.9658

 Free energy of the ion-electron system (eV)
  ---------------------------------------------------
  alpha Z        PSCENC =         0.57153965
  Ewald energy   TEWEN  =        57.92836072
  -Hartree energ DENC   =      -538.14272261
  -exchange      EXHF   =         0.00000000
  -V(xc)+E(xc)   XCENC  =        32.99256711
  PAW double counting   =      9236.60352783    -9232.79902565
  entropy T*S    EENTRO =        -0.00000000
  eigenvalues    EBANDS =      -151.36814318
  atomic energy  EATOM  =       579.32078282
  Solvation  Ediel_sol  =         0.00000000
  ---------------------------------------------------
  free energy    TOTEN  =       -14.89311331 eV

  energy without entropy =      -14.89311331  energy(sigma->0) =      -14.89311331


--------------------------------------------------------------------------------------------------------




----------------------------------------- Iteration    2(   3)  ---------------------------------------


    POTLOK:  cpu time    0.3344: real time    0.3345
    SETDIJ:  cpu time    0.0015: real time    0.0015
     EDDAV:  cpu time    0.1342: real time    0.1346
       DOS:  cpu time    0.0000: real time    0.0001
    CHARGE:  cpu time    0.0374: real time    0.0376
    MIXING:  cpu time    0.0091: real time    0.0091
    --------------------------------------------
      LOOP:  cpu time    0.5181: real time    0.5191

 eigenvalue-minimisations  :    32
 total energy-change (2. order) : 0.2637102E-02  (-0.6379278E-03)
 number of electron      10.0000003 magnetization 
 augmentation part       -0.0056935 magnetization 

 Broyden mixing:
  rms(total) = 0.59666E-01    rms(broyden)= 0.59665E-01
  rms(prec ) = 0.61396E-01
  weight for this iteration     100.00

 eigenvalues of (default mixing * dielectric matrix)
  average eigenvalue GAMMA=   1.5295
  1.0174  2.0415

 Free energy of the ion-electron system (eV)
  ---------------------------------------------------
  alpha Z        PSCENC =         0.57153965
  Ewald energy   TEWEN  =        57.92836072
  -Hartree energ DENC   =      -538.91310609
  -exchange      EXHF   =         0.00000000
  -V(xc)+E(xc)   XCENC  =        33.03158674
  PAW double counting   =      9353.10879475    -9349.32184495
  entropy T*S    EENTRO =        -0.00000000
  eigenvalues    EBANDS =      -150.61658985
  atomic energy  EATOM  =       579.32078282
  Solvation  Ediel_sol  =         0.00000000
  ---------------------------------------------------
  free energy    TOTEN  =       -14.89047621 eV

  energy without entropy =      -14.89047621  energy(sigma->0) =      -14.89047621


--------------------------------------------------------------------------------------------------------




----------------------------------------- Iteration    2(   4)  ---------------------------------------


    POTLOK:  cpu time    0.3313: real time    0.3324
    SETDIJ:  cpu time    0.0016: real time    0.0016
     EDDAV:  cpu time    0.1089: real time    0.1101
       DOS:  cpu time    0.0001: real time    0.0001
    CHARGE:  cpu time    0.0371: real time    0.0372
    MIXING:  cpu time    0.0098: real time    0.0098
    --------------------------------------------
      LOOP:  cpu time    0.4902: real time    0.4927

 eigenvalue-minimisations  :    24
 total energy-change (2. order) : 0.4999614E-03  (-0.3004861E-03)
 number of electron      10.0000003 magnetization 
 augmentation part       -0.0057887 magnetization 

 Broyden mixing:
  rms(total) = 0.21822E-01    rms(broyden)= 0.21821E-01
  rms(prec ) = 0.22103E-01
  weight for this iteration     100.00

 eigenvalues of (default mixing * dielectric matrix)
  average eigenvalue GAMMA=   1.5379
  2.3040  1.0082  1.3015

 Free energy of the ion-electron system (eV)
  ---------------------------------------------------
  alpha Z        PSCENC =         0.57153965
  Ewald energy   TEWEN  =        57.92836072
  -Hartree energ DENC   =      -539.38853652
  -exchange      EXHF   =         0.00000000
  -V(xc)+E(xc)   XCENC  =        33.05512456
  PAW double counting   =      9535.28463258    -9531.51050638
  entropy T*S    EENTRO =        -0.00000000
  eigenvalues    EBANDS =      -150.15137367
  atomic energy  EATOM  =       579.32078282
  Solvation  Ediel_sol  =         0.00000000
  ---------------------------------------------------
  free energy    TOTEN  =       -14.88997625 eV

  energy without entropy =      -14.88997625  energy(sigma->0) =      -14.88997625


--------------------------------------------------------------------------------------------------------




----------------------------------------- Iteration    2(   5)  ---------------------------------------


    POTLOK:  cpu time    0.3269: real time    0.3276
    SETDIJ:  cpu time    0.0015: real time    0.0015
     EDDAV:  cpu time    0.0956: real time    0.0957
       DOS:  cpu time    0.0000: real time    0.0000
    --------------------------------------------
      LOOP:  cpu time    0.4252: real time    0.4262

 eigenvalue-minimisations  :    20
 total energy-change (2. order) :-0.6749028E-04  (-0.1903156E-04)
 number of electron      10.0000003 magnetization 
 augmentation part       -0.0057887 magnetization 

 Free energy of the ion-electron system (eV)
  ---------------------------------------------------
  alpha Z        PSCENC =         0.57153965
  Ewald energy   TEWEN  =        57.92836072
  -Hartree energ DENC   =      -539.38823150
  -exchange      EXHF   =         0.00000000
  -V(xc)+E(xc)   XCENC  =        33.05495471
  PAW double counting   =      9605.40085872    -9601.62789858
  entropy T*S    EENTRO =        -0.00000000
  eigenvalues    EBANDS =      -150.15041029
  atomic energy  EATOM  =       579.32078282
  Solvation  Ediel_sol  =         0.00000000
  ---------------------------------------------------
  free energy    TOTEN  =       -14.89004374 eV

  energy without entropy =      -14.89004374  energy(sigma->0) =      -14.89004374


--------------------------------------------------------------------------------------------------------




 average (electrostatic) potential at core
  the test charge radii are     0.5770  0.5955
  (the norm of the test charge is              1.0000)
       1 -88.6486       2-122.3692
 
 
 
 E-fermi :  -7.7431     XC(G=0):  -1.2250     alpha+bet : -0.3665


 k-point     1 :       0.0000    0.0000    0.0000
  band No.  band energies     occupation 
      1     -29.3005      2.00000
      2     -13.7641      2.00000
      3     -11.6752      2.00000
      4     -11.6752      2.00000
      5      -8.6603      2.00000
      6      -1.4551      0.00000
      7      -1.4551      0.00000
      8      -0.2762      0.00000
      9       1.7398      0.00000
     10       1.8571      0.00000


--------------------------------------------------------------------------------------------------------


 soft charge-density along one line, spin component           1
         0         1         2         3         4         5         6         7         8         9
 total charge-density along one line
 
 pseudopotential strength for first ion, spin component:           1
 12.821  21.578   0.000   0.052   0.000   0.000   0.093   0.000
 21.578  36.315   0.000   0.088   0.000   0.000   0.155   0.000
  0.000   0.000  -3.216  -0.000   0.000  -5.768  -0.000   0.000
  0.052   0.088  -0.000  -3.212  -0.000  -0.000  -5.761  -0.000
  0.000   0.000   0.000  -0.000  -3.216   0.000  -0.000  -5.768
  0.000   0.000  -5.768  -0.000   0.000 -10.321  -0.000   0.000
  0.093   0.155  -0.000  -5.761  -0.000  -0.000 -10.311  -0.000
  0.000   0.000   0.000  -0.000  -5.768   0.000  -0.000 -10.321
 total augmentation occupancy for first ion, spin component:           1
  7.659  -2.780   0.000   7.206   0.000  -0.000  -3.308   0.000
 -2.780   1.249   0.000  -3.675   0.000   0.000   1.570   0.000
  0.000   0.000   3.526   0.000   0.000  -1.160   0.000   0.000
  7.206  -3.675   0.000  13.529  -0.000   0.000  -5.256  -0.000
  0.000   0.000   0.000  -0.000   3.526   0.000   0.000  -1.160
 -0.000   0.000  -1.160  -0.000   0.000   0.382   0.000   0.000
 -3.308   1.570   0.000  -5.256   0.000   0.000   2.124   0.000
  0.000   0.000   0.000   0.000  -1.160   0.000   0.000   0.382


------------------------ aborting loop because EDIFF is reached ----------------------------------------


    CHARGE:  cpu time    0.0370: real time    0.0370
    FORLOC:  cpu time    0.0177: real time    0.0187
    FORNL :  cpu time    0.0068: real time    0.0068
    STRESS:  cpu time    0.0648: real time    0.0650
    FORCOR:  cpu time    0.3592: real time    0.3605
    FORHAR:  cpu time    0.0847: real time    0.0850
    MIXING:  cpu time    0.0103: real time    0.0103
    OFIELD:  cpu time    0.0001: real time    0.0001

  FORCE on cell =-STRESS in cart. coord.  units (eV):
  Direction    XX          YY          ZZ          XY          YZ          ZX
  --------------------------------------------------------------------------------------
  Alpha Z     0.57154     0.57154     0.57154
  Ewald     -85.95683   -85.95683   229.84198     0.00000     0.00000     0.00000
  Hartree   143.14975   143.14975   252.97978    -0.00000    -0.00000    -0.00000
  E(xc)     -46.14126   -46.14126   -45.37631     0.00000    -0.00000    -0.00000
  Local    -258.76606  -258.76606  -661.66806    -0.00000    -0.00000     0.00000
  n-local    -3.23447    -3.23443    -8.01833     0.00000     0.00000    -0.00000
  augment     0.46450     0.46450     0.72180    -0.00000     0.00000    -0.00000
  Kinetic   248.42135   248.42109   233.00465    -0.00001    -0.00000     0.00000
  Fock        0.00000     0.00000     0.00000     0.00000     0.00000     0.00000
  -------------------------------------------------------------------------------------
  Total      -1.49159    -1.49159     2.05703     0.00000    -0.00000     0.00000
  in kB      -4.66757    -4.66757     6.43698     0.00000    -0.00000     0.00000
  external pressure =       -0.97 kB  Pullay stress =        0.00 kB


 VOLUME and BASIS-vectors are now :
 -----------------------------------------------------------------------------
  energy-cutoff  :      700.00
  volume of cell :      512.00
      direct lattice vectors                 reciprocal lattice vectors
     8.000000000  0.000000000  0.000000000     0.125000000  0.000000000  0.000000000
     0.000000000  8.000000000  0.000000000     0.000000000  0.125000000  0.000000000
     0.000000000  0.000000000  8.000000000     0.000000000  0.000000000  0.125000000

  length of vectors
     8.000000000  8.000000000  8.000000000     0.125000000  0.125000000  0.125000000


 FORCES acting on ions
    electron-ion (+dipol)            ewald-force                    non-local-force                 convergence-correction
 -----------------------------------------------------------------------------------------------
   0.533E-14 0.284E-14 0.249E+03   0.162E-15 0.867E-16 -.277E+03   0.000E+00 -.331E-23 0.250E+02   0.186E-13 0.136E-13 0.487E-01
   0.266E-14 0.345E-14 -.223E+03   -.126E-15 -.311E-16 0.277E+03   0.000E+00 0.199E-22 -.512E+02   0.703E-14 0.761E-14 -.219E-01
 -----------------------------------------------------------------------------------------------
   0.799E-14 0.629E-14 0.262E+02   0.369E-16 0.557E-16 0.000E+00   0.000E+00 0.165E-22 -.263E+02   0.256E-13 0.212E-13 0.268E-01
 
 
 POSITION                                       TOTAL-FORCE (eV/Angst)
 -----------------------------------------------------------------------------------
      0.00000      0.00000      0.01676         0.000000     -0.000000     -3.240660
      0.00000      0.00000      1.12624        -0.000000      0.000000      3.240660
 -----------------------------------------------------------------------------------
    total drift:                                0.000000      0.000000     -0.001514


--------------------------------------------------------------------------------------------------------



  FREE ENERGIE OF THE ION-ELECTRON SYSTEM (eV)
  ---------------------------------------------------
  free  energy   TOTEN  =       -14.89004374 eV

  energy  without entropy=      -14.89004374  energy(sigma->0) =      -14.89004374
 
 d Force =-0.3975328E-01[-0.109E+00, 0.291E-01]  d Energy =-0.3694073E-01-0.281E-02
 d Force =-0.9024560E+01[-0.930E+01,-0.875E+01]  d Ewald  =-0.9020518E+01-0.404E-02


--------------------------------------------------------------------------------------------------------


    POTLOK:  cpu time    0.3282: real time    0.3282


--------------------------------------------------------------------------------------------------------


 stress matrix after NEB project (eV)
     -1.49159      0.00000      0.00000
      0.00000     -1.49159     -0.00000
      0.00000     -0.00000      2.05703
  FORCES: max atom, RMS     3.240660    3.240660
  FORCE total and by dimension    4.582986    3.240660
  Stress total and by dimension    2.946367    2.057034
 Steepest descent step on ions:
 trial-energy change:    0.036941  1 .order    0.039753   -0.029104    0.108611
  (g-gl).g = 0.291E-01      g.g   = 0.291E-01  gl.gl    = 0.000E+00
 g(Force)  = 0.291E-01   g(Stress)= 0.000E+00 ortho     = 0.000E+00
 gamma     =   0.00000
 trial     =   1.00000
 opt step  =   0.23325  (harmonic =   0.21134) maximal distance =0.00390875
 next E    =   -14.930415   (d E  =  -0.00343)


--------------------------------------------------------------------------------------------------------


    WAVPRE:  cpu time    0.0838: real time    0.0842
 FEWALD executed in parallel
    FEWALD:  cpu time    0.0002: real time    0.0002
    ORTHCH:  cpu time    0.0025: real time    0.0025
     LOOP+:  cpu time    3.4343: real time    3.4574


----------------------------------------- Iteration    3(   1)  ---------------------------------------


    POTLOK:  cpu time    0.3261: real time    0.3264
    SETDIJ:  cpu time    0.0015: real time    0.0015
     EDDAV:  cpu time    0.0968: real time    0.1049
       DOS:  cpu time    0.0001: real time    0.0000
    CHARGE:  cpu time    0.0385: real time    0.0388
    MIXING:  cpu time    0.0078: real time    0.0078
    --------------------------------------------
      LOOP:  cpu time    0.4718: real time    0.4808

 eigenvalue-minimisations  :    20
 total energy-change (2. order) :-0.4385395E-01  (-0.3594564E+00)
 number of electron      10.0000002 magnetization 
 augmentation part       -0.0082661 magnetization 

 Broyden mixing:
  rms(total) = 0.32676E+00    rms(broyden)= 0.32673E+00
  rms(prec ) = 0.32947E+00
  weight for this iteration     100.00

 Free energy of the ion-electron system (eV)
  ---------------------------------------------------
  alpha Z        PSCENC =         0.57153965
  Ewald energy   TEWEN  =        50.96334330
  -Hartree energ DENC   =      -535.30062671
  -exchange      EXHF   =         0.00000000
  -V(xc)+E(xc)   XCENC  =        32.92804117
  PAW double counting   =      9637.43126170    -9633.65744210
  entropy T*S    EENTRO =        -0.00000000
  eigenvalues    EBANDS =      -147.19073002
  atomic energy  EATOM  =       579.32078282
  Solvation  Ediel_sol  =         0.00000000
  ---------------------------------------------------
  free energy    TOTEN  =       -14.93383020 eV

  energy without entropy =      -14.93383020  energy(sigma->0) =      -14.93383020


--------------------------------------------------------------------------------------------------------




----------------------------------------- Iteration    3(   2)  ---------------------------------------


    POTLOK:  cpu time    0.3269: real time    0.3294
    SETDIJ:  cpu time    0.0015: real time    0.0015
     EDDAV:  cpu time    0.1075: real time    0.1079
       DOS:  cpu time    0.0001: real time    0.0001
    CHARGE:  cpu time    0.0374: real time    0.0374
    MIXING:  cpu time    0.0085: real time    0.0085
    --------------------------------------------
      LOOP:  cpu time    0.4832: real time    0.4864

 eigenvalue-minimisations  :    24
 total energy-change (2. order) : 0.1949296E-02  (-0.3802235E-02)
 number of electron      10.0000002 magnetization 
 augmentation part       -0.0097793 magnetization 

 Broyden mixing:
  rms(total) = 0.60389E-01    rms(broyden)= 0.60381E-01
  rms(prec ) = 0.64664E-01
  weight for this iteration     100.00

 eigenvalues of (default mixing * dielectric matrix)
  average eigenvalue GAMMA=   1.0245
  1.0245

 Free energy of the ion-electron system (eV)
  ---------------------------------------------------
  alpha Z        PSCENC =         0.57153965
  Ewald energy   TEWEN  =        50.96334330
  -Hartree energ DENC   =      -534.60092634
  -exchange      EXHF   =         0.00000000
  -V(xc)+E(xc)   XCENC  =        32.89173588
  PAW double counting   =      9173.88891292    -9170.09663407
  entropy T*S    EENTRO =        -0.00000000
  eigenvalues    EBANDS =      -147.87063506
  atomic energy  EATOM  =       579.32078282
  Solvation  Ediel_sol  =         0.00000000
  ---------------------------------------------------
  free energy    TOTEN  =       -14.93188090 eV

  energy without entropy =      -14.93188090  energy(sigma->0) =      -14.93188090


--------------------------------------------------------------------------------------------------------




----------------------------------------- Iteration    3(   3)  ---------------------------------------


    POTLOK:  cpu time    0.3218: real time    0.3236
    SETDIJ:  cpu time    0.0015: real time    0.0015
     EDDAV:  cpu time    0.1091: real time    0.1100
       DOS:  cpu time    0.0001: real time    0.0001
    CHARGE:  cpu time    0.0373: real time    0.0373
    MIXING:  cpu time    0.0090: real time    0.0102
    --------------------------------------------
      LOOP:  cpu time    0.4802: real time    0.4844

 eigenvalue-minimisations  :    24
 total energy-change (2. order) : 0.1370909E-02  (-0.3868666E-03)
 number of electron      10.0000002 magnetization 
 augmentation part       -0.0092540 magnetization 

 Broyden mixing:
  rms(total) = 0.44222E-01    rms(broyden)= 0.44221E-01
  rms(prec ) = 0.45240E-01
  weight for this iteration     100.00

 eigenvalues of (default mixing * dielectric matrix)
  average eigenvalue GAMMA=   1.5781
  1.0222  2.1341

 Free energy of the ion-electron system (eV)
  ---------------------------------------------------
  alpha Z        PSCENC =         0.57153965
  Ewald energy   TEWEN  =        50.96334330
  -Hartree energ DENC   =      -534.03560764
  -exchange      EXHF   =         0.00000000
  -V(xc)+E(xc)   XCENC  =        32.86347015
  PAW double counting   =      9046.07613728    -9042.27048040
  entropy T*S    EENTRO =        -0.00000000
  eigenvalues    EBANDS =      -148.41969514
  atomic energy  EATOM  =       579.32078282
  Solvation  Ediel_sol  =         0.00000000
  ---------------------------------------------------
  free energy    TOTEN  =       -14.93050999 eV

  energy without entropy =      -14.93050999  energy(sigma->0) =      -14.93050999


--------------------------------------------------------------------------------------------------------




----------------------------------------- Iteration    3(   4)  ---------------------------------------


    POTLOK:  cpu time    0.3012: real time    0.3045
    SETDIJ:  cpu time    0.0016: real time    0.0016
     EDDAV:  cpu time    0.0969: real time    0.0971
       DOS:  cpu time    0.0001: real time    0.0001
    CHARGE:  cpu time    0.0378: real time    0.0378
    MIXING:  cpu time    0.0096: real time    0.0096
    --------------------------------------------
      LOOP:  cpu time    0.4485: real time    0.4524

 eigenvalue-minimisations  :    20
 total energy-change (2. order) : 0.1341402E-03  (-0.1428651E-03)
 number of electron      10.0000002 magnetization 
 augmentation part       -0.0092090 magnetization 

 Broyden mixing:
  rms(total) = 0.14464E-01    rms(broyden)= 0.14463E-01
  rms(prec ) = 0.14674E-01
  weight for this iteration     100.00

 eigenvalues of (default mixing * dielectric matrix)
  average eigenvalue GAMMA=   1.5584
  2.4315  1.0456  1.1982

 Free energy of the ion-electron system (eV)
  ---------------------------------------------------
  alpha Z        PSCENC =         0.57153965
  Ewald energy   TEWEN  =        50.96334330
  -Hartree energ DENC   =      -533.72813680
  -exchange      EXHF   =         0.00000000
  -V(xc)+E(xc)   XCENC  =        32.84874010
  PAW double counting   =      8876.73735341    -8872.92270704
  entropy T*S    EENTRO =        -0.00000000
  eigenvalues    EBANDS =      -148.72129128
  atomic energy  EATOM  =       579.32078282
  Solvation  Ediel_sol  =         0.00000000
  ---------------------------------------------------
  free energy    TOTEN  =       -14.93037585 eV

  energy without entropy =      -14.93037585  energy(sigma->0) =      -14.93037585


--------------------------------------------------------------------------------------------------------




----------------------------------------- Iteration    3(   5)  ---------------------------------------


    POTLOK:  cpu time    0.3193: real time    0.3236
    SETDIJ:  cpu time    0.0018: real time    0.0018
     EDDAV:  cpu time    0.1115: real time    0.1117
       DOS:  cpu time    0.0001: real time    0.0001
    --------------------------------------------
      LOOP:  cpu time    0.4338: real time    0.4386

 eigenvalue-minimisations  :    24
 total energy-change (2. order) :-0.4049951E-04  (-0.1123815E-04)
 number of electron      10.0000002 magnetization 
 augmentation part       -0.0092090 magnetization 

 Free energy of the ion-electron system (eV)
  ---------------------------------------------------
  alpha Z        PSCENC =         0.57153965
  Ewald energy   TEWEN  =        50.96334330
  -Hartree energ DENC   =      -533.73913402
  -exchange      EXHF   =         0.00000000
  -V(xc)+E(xc)   XCENC  =        32.84955671
  PAW double counting   =      8822.41907044    -8818.60374569
  entropy T*S    EENTRO =        -0.00000000
  eigenvalues    EBANDS =      -148.71182955
  atomic energy  EATOM  =       579.32078282
  Solvation  Ediel_sol  =         0.00000000
  ---------------------------------------------------
  free energy    TOTEN  =       -14.93041635 eV

  energy without entropy =      -14.93041635  energy(sigma->0) =      -14.93041635


--------------------------------------------------------------------------------------------------------




 average (electrostatic) potential at core
  the test charge radii are     0.5770  0.5955
  (the norm of the test charge is              1.0000)
       1 -88.8144       2-122.3176
 
 
 
 E-fermi :  -7.7902     XC(G=0):  -1.1150     alpha+bet : -0.3665


 k-point     1 :       0.0000    0.0000    0.0000
  band No.  band energies     occupation 
      1     -28.9456      2.00000
      2     -13.7835      2.00000
      3     -11.4544      2.00000
      4     -11.4544      2.00000
      5      -8.7180      2.00000
      6      -1.7113      0.00000
      7      -1.7113      0.00000
      8      -0.1644      0.00000
      9       1.7658      0.00000
     10       1.9594      0.00000


--------------------------------------------------------------------------------------------------------


 soft charge-density along one line, spin component           1
         0         1         2         3         4         5         6         7         8         9
 total charge-density along one line
 
 pseudopotential strength for first ion, spin component:           1
 12.823  21.581  -0.000   0.050   0.000  -0.000   0.088   0.000
 21.581  36.320  -0.000   0.083   0.000  -0.000   0.148   0.000
 -0.000  -0.000  -3.222   0.000  -0.000  -5.778   0.000  -0.000
  0.050   0.083   0.000  -3.217  -0.000   0.000  -5.770  -0.000
  0.000   0.000  -0.000  -0.000  -3.222  -0.000  -0.000  -5.778
 -0.000  -0.000  -5.778   0.000  -0.000 -10.340   0.000  -0.000
  0.088   0.148   0.000  -5.770  -0.000   0.000 -10.327  -0.000
  0.000   0.000  -0.000  -0.000  -5.778  -0.000  -0.000 -10.340
 total augmentation occupancy for first ion, spin component:           1
  7.081  -2.514   0.000   6.613   0.000  -0.000  -3.029   0.000
 -2.514   1.137   0.000  -3.405  -0.000   0.000   1.440   0.000
  0.000   0.000   3.255   0.000   0.000  -1.051   0.000   0.000
  6.613  -3.405  -0.000  12.645   0.000   0.000  -4.873  -0.000
  0.000  -0.000   0.000  -0.000   3.255   0.000  -0.000  -1.051
 -0.000   0.000  -1.051   0.000   0.000   0.340   0.000   0.000
 -3.029   1.440   0.000  -4.873  -0.000   0.000   1.955   0.000
  0.000   0.000   0.000  -0.000  -1.051   0.000   0.000   0.340


------------------------ aborting loop because EDIFF is reached ----------------------------------------


    CHARGE:  cpu time    0.0390: real time    0.0395
    FORLOC:  cpu time    0.0188: real time    0.0190
    FORNL :  cpu time    0.0069: real time    0.0069
    STRESS:  cpu time    0.0685: real time    0.0688
    FORCOR:  cpu time    0.3559: real time    0.3563
    FORHAR:  cpu time    0.0831: real time    0.0831
    MIXING:  cpu time    0.0107: real time    0.0107
    OFIELD:  cpu time    0.0001: real time    0.0001

  FORCE on cell =-STRESS in cart. coord.  units (eV):
  Direction    XX          YY          ZZ          XY          YZ          ZX
  --------------------------------------------------------------------------------------
  Alpha Z     0.57154     0.57154     0.57154
  Ewald     -85.99346   -85.99346   222.95021    -0.00000     0.00000     0.00000
  Hartree   141.03380   141.03380   251.76672    -0.00000    -0.00000    -0.00000
  E(xc)     -45.89964   -45.89964   -45.11997    -0.00000    -0.00000    -0.00000
  Local    -255.58743  -255.58743  -655.73580     0.00000     0.00000     0.00000
  n-local    -2.64990    -2.64982    -7.40707     0.00000    -0.00000     0.00000
  augment     0.45682     0.45682     0.67971    -0.00000    -0.00000    -0.00000
  Kinetic   246.67274   246.67235   230.77165    -0.00001    -0.00000    -0.00000
  Fock        0.00000     0.00000     0.00000     0.00000     0.00000     0.00000
  -------------------------------------------------------------------------------------
  Total      -1.39568    -1.39568    -1.52302     0.00000    -0.00000     0.00000
  in kB      -4.36744    -4.36744    -4.76592     0.00000    -0.00000     0.00000
  external pressure =       -4.50 kB  Pullay stress =        0.00 kB


 VOLUME and BASIS-vectors are now :
 -----------------------------------------------------------------------------
  energy-cutoff  :      700.00
  volume of cell :      512.00
      direct lattice vectors                 reciprocal lattice vectors
     8.000000000  0.000000000  0.000000000     0.125000000  0.000000000  0.000000000
     0.000000000  8.000000000  0.000000000     0.000000000  0.125000000  0.000000000
     0.000000000  0.000000000  8.000000000     0.000000000  0.000000000  0.125000000

  length of vectors
     8.000000000  8.000000000  8.000000000     0.125000000  0.125000000  0.125000000


 FORCES acting on ions
    electron-ion (+dipol)            ewald-force                    non-local-force                 convergence-correction
 -----------------------------------------------------------------------------------------------
   0.119E-14 -.197E-14 0.238E+03   -.611E-17 -.203E-16 -.265E+03   0.000E+00 -.827E-24 0.266E+02   0.875E-14 0.725E-14 -.352E-01
   -.126E-14 0.676E-14 -.213E+03   0.430E-16 0.759E-16 0.265E+03   0.000E+00 -.414E-23 -.513E+02   0.661E-14 -.958E-14 0.286E-01
 -----------------------------------------------------------------------------------------------
   -.721E-16 0.478E-14 0.247E+02   0.369E-16 0.557E-16 0.000E+00   0.000E+00 -.496E-23 -.247E+02   0.154E-13 -.233E-14 -.656E-02
 
 
 POSITION                                       TOTAL-FORCE (eV/Angst)
 -----------------------------------------------------------------------------------
      0.00000      0.00000      0.00391         0.000000     -0.000000      0.009399
      0.00000      0.00000      1.13909        -0.000000      0.000000     -0.009399
 -----------------------------------------------------------------------------------
    total drift:                                0.000000      0.000000     -0.001735


--------------------------------------------------------------------------------------------------------



  FREE ENERGIE OF THE ION-ELECTRON SYSTEM (eV)
  ---------------------------------------------------
  free  energy   TOTEN  =       -14.93041635 eV

  energy  without entropy=      -14.93041635  energy(sigma->0) =      -14.93041635
 
 d Force = 0.4151782E-01[-0.242E-03, 0.833E-01]  d Energy = 0.4037261E-01 0.115E-02
 d Force = 0.6966865E+01[ 0.680E+01, 0.713E+01]  d Ewald  = 0.6965017E+01 0.185E-02


--------------------------------------------------------------------------------------------------------


    POTLOK:  cpu time    0.3094: real time    0.3121


--------------------------------------------------------------------------------------------------------


 stress matrix after NEB project (eV)
     -1.39568      0.00000      0.00000
      0.00000     -1.39568      0.00000
      0.00000     -0.00000     -1.52302
  FORCES: max atom, RMS     0.009399    0.009399
  FORCE total and by dimension    0.013293    0.009399
  Stress total and by dimension    2.493082    1.523023


--------------------------------------------------------------------------------------------------------


  
 reached required accuracy - stopping structural energy minimisation
 writing wavefunctions
     LOOP+:  cpu time    3.2208: real time    3.2587
    4ORBIT:  cpu time    0.0000: real time    0.0000

 total amount of memory used by VASP on root node    96832. kBytes
========================================================================

   base      :      30000. kBytes
   nonl-proj :       1724. kBytes
   fftplans  :      22159. kBytes
   grid      :      42083. kBytes
   one-center:          3. kBytes
   wavefun   :        863. kBytes
 
  
  
 General timing and accounting informations for this job:
 ========================================================
  
                  Total CPU time used (sec):       21.576
                            User time (sec):       17.214
                          System time (sec):        4.362
                         Elapsed time (sec):       22.020
  
                   Maximum memory used (kb):      186556.
                   Average memory used (kb):           0.
  
                          Minor page faults:       269076
                          Major page faults:            0
                 Voluntary context switches:          797
