CO dimer in a box                       
           1
     8.000000    0.000000    0.000000
     0.000000    8.000000    0.000000
     0.000000    0.000000    8.000000
   C    O 
   1   1
Direct configuration=     1
   0.00000000  0.00000000  0.00000000
   0.00000000  0.00000000  0.14287500
Direct configuration=     2
   0.00000000  0.00000000  0.00209469
   0.00000000  0.00000000  0.14078031
Direct configuration=     3
   0.00000000  0.00000000  0.00048859
   0.00000000  0.00000000  0.14238641
