    1    1    1    2
  0.4200000E+03  0.7000000E-09  0.7500000E-09  0.8000000E-09  0.5000000E-15
  1.000000000000000E-004
  CAR 
 O atom in a box                         
      6      1      8
 
  0.0000000E+00  0.0000000E+00  0.0000000E+00  0.1000000E+01
    1      -25.051996    -21.804521   1.000000   1.000000
    2      -10.050297     -7.019156   1.000000   0.336058
    3      -10.045434     -7.017749   1.000000   0.332438
    4      -10.043243     -7.017386   1.000000   0.331504
    5       -0.583705     -0.351310   0.000000   0.000000
    6        1.740473      2.007172   0.000000   0.000000
    7        1.922316      2.088506   0.000000   0.000000
    8        2.041927      2.300836   0.000000   0.000000
