 vasp.5.4.1 05Feb16 (build Nov 22 2023 12:07:42) gamma-only                     
  
 executed on           IFC91_ompi date 2026.09.09  23:08:19
 running on    2 total cores
 distrk:  each k-point on    2 cores,    1 groups
 distr:  one band on NCORES_PER_BAND=   1 cores,    2 groups


--------------------------------------------------------------------------------------------------------


 INCAR:
 POTCAR:    PAW_PBE O 08Apr2002                   
 POTCAR:    PAW_PBE O 08Apr2002                   
   VRHFIN =O: s2p4                                                              
   LEXCH  = PE                                                                  
   EATOM  =   432.3788 eV,   31.7789 Ry                                         
                                                                                
   TITEL  = PAW_PBE O 08Apr2002                                                 
   LULTRA =        F    use ultrasoft PP ?                                      
   IUNSCR =        1    unscreen: 0-lin 1-nonlin 2-no                           
   RPACOR =    1.200    partial core radius                                     
   POMASS =   16.000; ZVAL   =    6.000    mass and valenz                      
   RCORE  =    1.520    outmost cutoff radius                                   
   RWIGS  =    1.550; RWIGS  =    0.820    wigner-seitz radius (au A)           
   ENMAX  =  400.000; ENMIN  =  300.000 eV                                      
   ICORE  =        2    local potential                                         
   LCOR   =        T    correct aug charges                                     
   LPAW   =        T    paw PP                                                  
   EAUG   =  605.392                                                            
   DEXC   =    0.000                                                            
   RMAX   =    1.553    core radius for proj-oper                               
   RAUG   =    1.300    factor for augmentation sphere                          
   RDEP   =    1.550    radius for radial grids                                 
   RDEPT  =    1.329    core radius for aug-charge                              
                                                                                
   Atomic configuration                                                         
    4 entries                                                                   
     n  l   j            E        occ.                                          
     1  0  0.50      -514.6923   2.0000                                         
     2  0  0.50       -23.9615   2.0000                                         
     2  1  0.50        -9.0305   4.0000                                         
     3  2  1.50        -9.5241   0.0000                                         
   Description                                                                  
     l       E           TYP  RCUT    TYP  RCUT                                 
     0    -23.9615318     23  1.200                                             
     0     -9.5240782     23  1.200                                             
     1     -9.0304911     23  1.520                                             
     1      8.1634956     23  1.520                                             
     2     -9.5240782      7  1.500                                             
  local pseudopotential read in
  partial core-charges read in
  partial kinetic energy density read in
  kinetic energy density of atom read in
  atomic valenz-charges read in
  non local Contribution for L=           0  read in
    real space projection operators read in
  non local Contribution for L=           0  read in
    real space projection operators read in
  non local Contribution for L=           1  read in
    real space projection operators read in
  non local Contribution for L=           1  read in
    real space projection operators read in
    PAW grid and wavefunctions read in
 
   number of l-projection  operators is LMAX  =           4
   number of lm-projection operators is LMMAX =           8
 
  PAW_PBE O 08Apr2002                   :
 energy of atom  1       EATOM= -432.3788
 kinetic energy error for atom=    0.1156 (will be added to EATOM!!)
 
 
 POSCAR: O atom in a box                         
  positions in cartesian coordinates
  No initial velocities read in
 exchange correlation table for  LEXCH =        8
   RHO(1)=    0.500       N(1)  =     2000
   RHO(2)=  100.500       N(2)  =     4000

 VTST: version 3.2, (02/03/18)

 CHAIN: initializing optimizer
 
 OPT: Using VASP Dynamics algorithm
 CHAIN: Read ICHAIN            0
 
 POSCAR: O atom in a box                         
  positions in cartesian coordinates
  No initial velocities read in
 


--------------------------------------------------------------------------------------------------------


 ion  position               nearest neighbor table
   1  0.000  0.000  0.000-
 
  LATTYP: Found a simple orthorhombic cell.
 ALAT       =     7.0000000000
 B/A-ratio  =     1.0714285714
 C/A-ratio  =     1.1428571429
  
  Lattice vectors:
  
 A1 = (   7.0000000000,   0.0000000000,   0.0000000000)
 A2 = (   0.0000000000,   7.5000000000,   0.0000000000)
 A3 = (   0.0000000000,   0.0000000000,   8.0000000000)


Analysis of symmetry for initial positions (statically):
=====================================================================
 Subroutine PRICEL returns:
 Original cell was already a primitive cell.
 

 Routine SETGRP: Setting up the symmetry group for a 
 simple orthorhombic supercell.


 Subroutine GETGRP returns: Found  8 space group operations
 (whereof  8 operations were pure point group operations)
 out of a pool of  8 trial point group operations.


The static configuration has the point symmetry D_2h.


Analysis of symmetry for dynamics (positions and initial velocities):
=====================================================================
 Subroutine PRICEL returns:
 Original cell was already a primitive cell.
 

 Routine SETGRP: Setting up the symmetry group for a 
 simple orthorhombic supercell.


 Subroutine GETGRP returns: Found  8 space group operations
 (whereof  8 operations were pure point group operations)
 out of a pool of  8 trial point group operations.


The dynamic configuration has the point symmetry D_2h.


Analysis of structural, dynamic, and magnetic symmetry:
=====================================================================
 Subroutine PRICEL returns:
 Original cell was already a primitive cell.
 

 Routine SETGRP: Setting up the symmetry group for a 
 simple orthorhombic supercell.


 Subroutine GETGRP returns: Found  8 space group operations
 (whereof  8 operations were pure point group operations)
 out of a pool of  8 trial point group operations.


The magnetic configuration has the point symmetry D_2h.


 Subroutine INISYM returns: Found  8 space group operations
 (whereof  8 operations are pure point group operations),
 and found     1 'primitive' translations

 
 
 KPOINTS: Gamma-point only                        

Automatic generation of k-mesh.
Space group operators:
 irot       det(A)        alpha          n_x          n_y          n_z        tau_x        tau_y        tau_z
    1     1.000000     0.000000     1.000000     0.000000     0.000000     0.000000     0.000000     0.000000
    2    -1.000000     0.000000     1.000000     0.000000     0.000000     0.000000     0.000000     0.000000
    3     1.000000   180.000000     0.000000     0.000000     1.000000     0.000000     0.000000     0.000000
    4    -1.000000   180.000000     0.000000     0.000000     1.000000     0.000000     0.000000     0.000000
    5     1.000000   180.000000     0.000000     1.000000     0.000000     0.000000     0.000000     0.000000
    6    -1.000000   180.000000     0.000000     1.000000     0.000000     0.000000     0.000000     0.000000
    7     1.000000   180.000000     1.000000     0.000000     0.000000     0.000000     0.000000     0.000000
    8    -1.000000   180.000000     1.000000     0.000000     0.000000     0.000000     0.000000     0.000000
 
 Subroutine IBZKPT returns following result:
 ===========================================
 
 Found      1 irreducible k-points:
 
 Following reciprocal coordinates:
            Coordinates               Weight
  0.000000  0.000000  0.000000      1.000000
 
 Following cartesian coordinates:
            Coordinates               Weight
  0.000000  0.000000  0.000000      1.000000
 


--------------------------------------------------------------------------------------------------------




 Dimension of arrays:
   k-points           NKPTS =      1   k-points in BZ     NKDIM =      1   number of bands    NBANDS=      8
   number of dos      NEDOS =    301   number of ions     NIONS =      1
   non local maximal  LDIM  =      4   non local SUM 2l+1 LMDIM =      8
   total plane-waves  NPLWV =  57600
   max r-space proj   IRMAX =      1   max aug-charges    IRDMAX=   1979
   dimension x,y,z NGX =    36 NGY =   40 NGZ =   40
   dimension x,y,z NGXF=    72 NGYF=   80 NGZF=   80
   support grid    NGXF=    72 NGYF=   80 NGZF=   80
   ions per type =               1
 NGX,Y,Z   is equivalent  to a cutoff of   8.55,  8.87,  8.31 a.u.
 NGXF,Y,Z  is equivalent  to a cutoff of  17.10, 17.73, 16.62 a.u.


 I would recommend the setting:
   dimension x,y,z NGX =    34 NGY =   37 NGZ =   39
 SYSTEM =  O atom in a box                         
 POSCAR =  O atom in a box                         

 Startparameter for this run:
   NWRITE =      2    write-flag & timer
   PREC   = normal    normal or accurate (medium, high low for compatibility)
   ISTART =      0    job   : 0-new  1-cont  2-samecut
   ICHARG =      2    charge: 1-file 2-atom 10-const
   ISPIN  =      2    spin polarized calculation?
   LNONCOLLINEAR =      F non collinear calculations
   LSORBIT =      F    spin-orbit coupling
   INIWAV =      1    electr: 0-lowe 1-rand  2-diag
   LASPH  =      F    aspherical Exc in radial PAW
   METAGGA=      F    non-selfconsistent MetaGGA calc.

 Electronic Relaxation 1
   ENCUT  =  400.0 eV  29.40 Ry    5.42 a.u.  11.42 12.23 13.05*2*pi/ulx,y,z
   ENINI  =  400.0     initial cutoff
   ENAUG  =  605.4 eV  augmentation charge cutoff
   NELM   =     60;   NELMIN=  2; NELMDL= -5     # of ELM steps 
   EDIFF  = 0.1E-03   stopping-criterion for ELM
   LREAL  =      F    real-space projection
   NLSPLINE    = F    spline interpolate recip. space projectors
   LCOMPAT=      F    compatible to vasp.4.4
   GGA_COMPAT  = T    GGA compatible to vasp.4.4-vasp.4.6
   LMAXPAW     = -100 max onsite density
   LMAXMIX     =    2 max onsite mixed and CHGCAR
   VOSKOWN=      0    Vosko Wilk Nusair interpolation
   ROPT   =    0.00000
 Ionic relaxation
   EDIFFG = 0.1E-02   stopping-criterion for IOM
   NSW    =      0    number of steps for IOM
   NBLOCK =      1;   KBLOCK =      1    inner block; outer block 
   IBRION =     -1    ionic relax: 0-MD 1-quasi-New 2-CG
   NFREE  =      0    steps in history (QN), initial steepest desc. (CG)
   ISIF   =      2    stress and relaxation
   IWAVPR =     10    prediction:  0-non 1-charg 2-wave 3-comb
   ISYM   =      2    0-nonsym 1-usesym 2-fastsym
   LCORR  =      T    Harris-Foulkes like correction to forces

   POTIM  = 0.5000    time-step for ionic-motion
   TEIN   =    0.0    initial temperature
   TEBEG  =    0.0;   TEEND  =   0.0 temperature during run
   SMASS  =  -3.00    Nose mass-parameter (am)
   estimated Nose-frequenzy (Omega)   =  0.10E-29 period in steps =****** mass=  -0.112E-26a.u.
   SCALEE = 1.0000    scale energy and forces
   NPACO  =    256;   APACO  = 16.0  distance and # of slots for P.C.
   PSTRESS=    0.0 pullay stress

  Mass of Ions in am
   POMASS =  16.00
  Ionic Valenz
   ZVAL   =   6.00
  Atomic Wigner-Seitz radii
   RWIGS  =  -1.00
  virtual crystal weights 
   VCA    =   1.00
   NELECT =       6.0000    total number of electrons
   NUPDOWN=      -1.0000    fix difference up-down

 DOS related values:
   EMIN   =  10.00;   EMAX   =-10.00  energy-range for DOS
   EFERMI =   0.00
   ISMEAR =     0;   SIGMA  =   0.20  broadening in eV -4-tet -1-fermi 0-gaus

 Electronic relaxation 2 (details)
   IALGO  =     38    algorithm
   LDIAG  =      T    sub-space diagonalisation (order eigenvalues)
   LSUBROT=      F    optimize rotation matrix (better conditioning)
   TURBO    =      0    0=normal 1=particle mesh
   IRESTART =      0    0=no restart 2=restart with 2 vectors
   NREBOOT  =      0    no. of reboots
   NMIN     =      0    reboot dimension
   EREF     =   0.00    reference energy to select bands
   IMIX   =      4    mixing-type and parameters
     AMIX     =   0.40;   BMIX     =  1.00
     AMIX_MAG =   1.60;   BMIX_MAG =  1.00
     AMIN     =   0.10
     WC   =   100.;   INIMIX=   1;  MIXPRE=   1;  MAXMIX= -45

 Intra band minimization:
   WEIMIN = 0.0000     energy-eigenvalue tresh-hold
   EBREAK =  0.31E-05  absolut break condition
   DEPER  =   0.30     relativ break condition  

   TIME   =   0.40     timestep for ELM

  volume/ion in A,a.u.               =     420.00      2834.30
  Fermi-wavevector in a.u.,A,eV,Ry     =   0.397230  0.750656  2.146887  0.157792
  Thomas-Fermi vector in A             =   1.343925
 
 Write flags
   LWAVE  =      T    write WAVECAR
   LCHARG =      T    write CHGCAR
   LVTOT  =      F    write LOCPOT, total local potential
   LVHAR  =      F    write LOCPOT, Hartree potential only
   LELF   =      F    write electronic localiz. function (ELF)
   LORBIT =      0    0 simple, 1 ext, 2 COOP (PROOUT)


 Dipole corrections
   LMONO  =      F    monopole corrections only (constant potential shift)
   LDIPOL =      F    correct potential (dipole corrections)
   IDIPOL =      0    1-x, 2-y, 3-z, 4-all directions 
   EPSILON=  1.0000000 bulk dielectric constant

 Exchange correlation treatment:
   GGA     =    --    GGA type
   LEXCH   =     8    internal setting for exchange type
   VOSKOWN=      0    Vosko Wilk Nusair interpolation
   LHFCALC =     F    Hartree Fock is set to
   LHFONE  =     F    Hartree Fock one center treatment
   AEXX    =    0.0000 exact exchange contribution

 Linear response parameters
   LEPSILON=     F    determine dielectric tensor
   LRPA    =     F    only Hartree local field effects (RPA)
   LNABLA  =     F    use nabla operator in PAW spheres
   LVEL    =     F    velocity operator in full k-point grid
   LINTERFAST=   F  fast interpolation
   KINTER  =     0    interpolate to denser k-point grid
   CSHIFT  =0.1000    complex shift for real part using Kramers Kronig
   OMEGAMAX=  -1.0    maximum frequency
   DEG_THRESHOLD= 0.2000000E-02 threshold for treating states as degnerate
   RTIME   =    0.100 relaxation time in fs

 Orbital magnetization related:
   ORBITALMAG=     F  switch on orbital magnetization
   LCHIMAG   =     F  perturbation theory with respect to B field
   DQ        =  0.001000  dq finite difference perturbation B field



--------------------------------------------------------------------------------------------------------


 Static calculation
 charge density and potential will be updated during run
 spin polarized calculation
 Variant of blocked Davidson
 Davidson routine will perform the subspace rotation
 perform sub-space diagonalisation
    after iterative eigenvector-optimisation
 modified Broyden-mixing scheme, WC =      100.0
 initial mixing is a Kerker type mixing with AMIX =  0.4000 and BMIX =      1.0000
 Hartree-type preconditioning will be used
 using additional bands            5
 reciprocal scheme for non local part
 use partial core corrections
 calculate Harris-corrections to forces 
   (improved forces if not selfconsistent)
 use gradient corrections 
 use of overlap-Matrix (Vanderbilt PP)
 Gauss-broadening in eV      SIGMA  =   0.20


--------------------------------------------------------------------------------------------------------


  energy-cutoff  :      400.00
  volume of cell :      420.00
      direct lattice vectors                 reciprocal lattice vectors
     7.000000000  0.000000000  0.000000000     0.142857143  0.000000000  0.000000000
     0.000000000  7.500000000  0.000000000     0.000000000  0.133333333  0.000000000
     0.000000000  0.000000000  8.000000000     0.000000000  0.000000000  0.125000000

  length of vectors
     7.000000000  7.500000000  8.000000000     0.142857143  0.133333333  0.125000000


 
 k-points in units of 2pi/SCALE and weight: Gamma-point only                        
   0.00000000  0.00000000  0.00000000       1.000
 
 k-points in reciprocal lattice and weights: Gamma-point only                        
   0.00000000  0.00000000  0.00000000       1.000
 
 position of ions in fractional coordinates (direct lattice) 
   0.00000000  0.00000000  0.00000000
 
 position of ions in cartesian coordinates  (Angst):
   0.00000000  0.00000000  0.00000000
 


--------------------------------------------------------------------------------------------------------


 use seriel FFT for wavefunctions x direction half grid
 k-point  1 :   0.0000 0.0000 0.0000  plane waves:    3813

 maximum and minimum number of plane-waves per node :      3813     3813

 maximum number of plane-waves:      3813
 maximum index in each direction: 
   IXMAX=   11   IYMAX=   12   IZMAX=   13
   IXMIN=    0   IYMIN=  -12   IZMIN=  -13

 WARNING: aliasing errors must be expected set NGX to  46 to avoid them
 WARNING: aliasing errors must be expected set NGY to  50 to avoid them
 WARNING: aliasing errors must be expected set NGZ to  54 to avoid them
 aliasing errors are usually negligible using standard VASP settings
 and one can safely disregard these warnings

 serial   3D FFT for wavefunctions
 parallel 3D FFT for charge:
    minimum data exchange during FFTs selected (reduces bandwidth)


 total amount of memory used by VASP on root node    60517. kBytes
========================================================================

   base      :      30000. kBytes
   nonl-proj :        305. kBytes
   fftplans  :       8156. kBytes
   grid      :      21565. kBytes
   one-center:          3. kBytes
   wavefun   :        488. kBytes
 
     INWAV:  cpu time    0.0000: real time    0.0003
 Broyden mixing: mesh for mixing (old mesh)
   NGX = 23   NGY = 25   NGZ = 27
  (NGX  = 72   NGY  = 80   NGZ  = 80)
  gives a total of  15525 points

 initial charge density was supplied:
 charge density of overlapping atoms calculated
 number of electron       6.0000000 magnetization       1.0000000
 keeping initial charge density in first step


--------------------------------------------------------------------------------------------------------


 Maximum index for augmentation-charges          871 (set IRDMAX)


--------------------------------------------------------------------------------------------------------


 First call to EWALD:  gamma=   0.237
 Maximum number of real-space cells 3x 3x 3
 Maximum number of reciprocal cells 3x 3x 3

 FEWALD executed in parallel
    FEWALD:  cpu time    0.0015: real time    0.0015


----------------------------------------- Iteration    1(   1)  ---------------------------------------


    POTLOK:  cpu time    0.2704: real time    0.2722
    SETDIJ:  cpu time    0.0057: real time    0.0057
     EDDAV:  cpu time    0.0535: real time    0.0572
       DOS:  cpu time    0.0005: real time    0.0008
    --------------------------------------------
      LOOP:  cpu time    0.3311: real time    0.3372

 eigenvalue-minimisations  :    32
 total energy-change (2. order) : 0.4024272E+02  (-0.1002423E+03)
 number of electron       6.0000000 magnetization       1.0000000
 augmentation part        6.0000000 magnetization       1.0000000

 Free energy of the ion-electron system (eV)
  ---------------------------------------------------
  alpha Z        PSCENC =         0.33084394
  Ewald energy   TEWEN  =       -97.75476090
  -Hartree energ DENC   =      -276.26989042
  -exchange      EXHF   =         0.00000000
  -V(xc)+E(xc)   XCENC  =        26.21203957
  PAW double counting   =       346.40602382     -348.19991654
  entropy T*S    EENTRO =        -0.04010149
  eigenvalues    EBANDS =       -42.70471582
  atomic energy  EATOM  =       432.26319604
  Solvation  Ediel_sol  =         0.00000000
  ---------------------------------------------------
  free energy    TOTEN  =        40.24271821 eV

  energy without entropy =       40.28281970  energy(sigma->0) =       40.26276896


--------------------------------------------------------------------------------------------------------




----------------------------------------- Iteration    1(   2)  ---------------------------------------


     EDDAV:  cpu time    0.0833: real time    0.0833
       DOS:  cpu time    0.0001: real time    0.0001
    --------------------------------------------
      LOOP:  cpu time    0.0846: real time    0.0850

 eigenvalue-minimisations  :    64
 total energy-change (2. order) :-0.3093042E+02  (-0.2893992E+02)
 number of electron       6.0000000 magnetization       1.0000000
 augmentation part        6.0000000 magnetization       1.0000000

 Free energy of the ion-electron system (eV)
  ---------------------------------------------------
  alpha Z        PSCENC =         0.33084394
  Ewald energy   TEWEN  =       -97.75476090
  -Hartree energ DENC   =      -276.26989042
  -exchange      EXHF   =         0.00000000
  -V(xc)+E(xc)   XCENC  =        26.21203957
  PAW double counting   =       346.40602382     -348.19991654
  entropy T*S    EENTRO =        -0.00000000
  eigenvalues    EBANDS =       -73.67523959
  atomic energy  EATOM  =       432.26319604
  Solvation  Ediel_sol  =         0.00000000
  ---------------------------------------------------
  free energy    TOTEN  =         9.31229593 eV

  energy without entropy =        9.31229593  energy(sigma->0) =        9.31229593


--------------------------------------------------------------------------------------------------------




----------------------------------------- Iteration    1(   3)  ---------------------------------------


     EDDAV:  cpu time    0.0567: real time    0.0567
       DOS:  cpu time    0.0001: real time    0.0001
    --------------------------------------------
      LOOP:  cpu time    0.0578: real time    0.0580

 eigenvalue-minimisations  :    40
 total energy-change (2. order) :-0.1004422E+02  (-0.7284451E+01)
 number of electron       6.0000000 magnetization       1.0000000
 augmentation part        6.0000000 magnetization       1.0000000

 Free energy of the ion-electron system (eV)
  ---------------------------------------------------
  alpha Z        PSCENC =         0.33084394
  Ewald energy   TEWEN  =       -97.75476090
  -Hartree energ DENC   =      -276.26989042
  -exchange      EXHF   =         0.00000000
  -V(xc)+E(xc)   XCENC  =        26.21203957
  PAW double counting   =       346.40602382     -348.19991654
  entropy T*S    EENTRO =        -0.14442656
  eigenvalues    EBANDS =       -83.57503383
  atomic energy  EATOM  =       432.26319604
  Solvation  Ediel_sol  =         0.00000000
  ---------------------------------------------------
  free energy    TOTEN  =        -0.73192487 eV

  energy without entropy =       -0.58749831  energy(sigma->0) =       -0.65971159


--------------------------------------------------------------------------------------------------------




----------------------------------------- Iteration    1(   4)  ---------------------------------------


     EDDAV:  cpu time    0.0512: real time    0.0523
       DOS:  cpu time    0.0001: real time    0.0001
    --------------------------------------------
      LOOP:  cpu time    0.0523: real time    0.0536

 eigenvalue-minimisations  :    32
 total energy-change (2. order) :-0.5241435E+00  (-0.5145523E+00)
 number of electron       6.0000000 magnetization       1.0000000
 augmentation part        6.0000000 magnetization       1.0000000

 Free energy of the ion-electron system (eV)
  ---------------------------------------------------
  alpha Z        PSCENC =         0.33084394
  Ewald energy   TEWEN  =       -97.75476090
  -Hartree energ DENC   =      -276.26989042
  -exchange      EXHF   =         0.00000000
  -V(xc)+E(xc)   XCENC  =        26.21203957
  PAW double counting   =       346.40602382     -348.19991654
  entropy T*S    EENTRO =        -0.15426067
  eigenvalues    EBANDS =       -84.08934326
  atomic energy  EATOM  =       432.26319604
  Solvation  Ediel_sol  =         0.00000000
  ---------------------------------------------------
  free energy    TOTEN  =        -1.25606841 eV

  energy without entropy =       -1.10180774  energy(sigma->0) =       -1.17893807


--------------------------------------------------------------------------------------------------------




----------------------------------------- Iteration    1(   5)  ---------------------------------------


     EDDAV:  cpu time    0.0670: real time    0.0671
       DOS:  cpu time    0.0001: real time    0.0001
    CHARGE:  cpu time    0.0272: real time    0.0274
    MIXING:  cpu time    0.0057: real time    0.0058
    --------------------------------------------
      LOOP:  cpu time    0.1013: real time    0.1020

 eigenvalue-minimisations  :    48
 total energy-change (2. order) :-0.3963133E-02  (-0.3962439E-02)
 number of electron       6.0000012 magnetization       1.6104223
 augmentation part        0.5126997 magnetization       0.0328619

 Broyden mixing:
  rms(total) = 0.65289E+00    rms(broyden)= 0.65234E+00
  rms(prec ) = 0.65248E+00
  weight for this iteration     100.00

 Free energy of the ion-electron system (eV)
  ---------------------------------------------------
  alpha Z        PSCENC =         0.33084394
  Ewald energy   TEWEN  =       -97.75476090
  -Hartree energ DENC   =      -276.26989042
  -exchange      EXHF   =         0.00000000
  -V(xc)+E(xc)   XCENC  =        26.21203957
  PAW double counting   =       346.40602382     -348.19991654
  entropy T*S    EENTRO =        -0.15426207
  eigenvalues    EBANDS =       -84.09330500
  atomic energy  EATOM  =       432.26319604
  Solvation  Ediel_sol  =         0.00000000
  ---------------------------------------------------
  free energy    TOTEN  =        -1.26003154 eV

  energy without entropy =       -1.10576948  energy(sigma->0) =       -1.18290051


--------------------------------------------------------------------------------------------------------




----------------------------------------- Iteration    1(   6)  ---------------------------------------


    POTLOK:  cpu time    0.2670: real time    0.2670
    SETDIJ:  cpu time    0.0053: real time    0.0053
     EDDAV:  cpu time    0.0573: real time    0.0574
       DOS:  cpu time    0.0001: real time    0.0001
    CHARGE:  cpu time    0.0211: real time    0.0211
    MIXING:  cpu time    0.0054: real time    0.0062
    --------------------------------------------
      LOOP:  cpu time    0.3577: real time    0.3590

 eigenvalue-minimisations  :    40
 total energy-change (2. order) : 0.1360673E+01  (-0.3150128E+00)
 number of electron       6.0000013 magnetization       1.8105655
 augmentation part        0.5365062 magnetization       0.2703799

 Broyden mixing:
  rms(total) = 0.15088E+00    rms(broyden)= 0.15050E+00
  rms(prec ) = 0.16798E+00
  weight for this iteration     100.00

 eigenvalues of (default mixing * dielectric matrix)
  average eigenvalue GAMMA=   0.8426
  0.8426

 Free energy of the ion-electron system (eV)
  ---------------------------------------------------
  alpha Z        PSCENC =         0.33084394
  Ewald energy   TEWEN  =       -97.75476090
  -Hartree energ DENC   =      -276.51851595
  -exchange      EXHF   =         0.00000000
  -V(xc)+E(xc)   XCENC  =        28.19667669
  PAW double counting   =       351.05101738     -352.71153316
  entropy T*S    EENTRO =        -0.15425139
  eigenvalues    EBANDS =       -84.60203084
  atomic energy  EATOM  =       432.26319604
  Solvation  Ediel_sol  =         0.00000000
  ---------------------------------------------------
  free energy    TOTEN  =         0.10064181 eV

  energy without entropy =        0.25489320  energy(sigma->0) =        0.17776750


--------------------------------------------------------------------------------------------------------




----------------------------------------- Iteration    1(   7)  ---------------------------------------


    POTLOK:  cpu time    0.2582: real time    0.2583
    SETDIJ:  cpu time    0.0053: real time    0.0053
     EDDAV:  cpu time    0.0483: real time    0.0484
       DOS:  cpu time    0.0001: real time    0.0001
    CHARGE:  cpu time    0.0207: real time    0.0207
    MIXING:  cpu time    0.0055: real time    0.0056
    --------------------------------------------
      LOOP:  cpu time    0.3396: real time    0.3401

 eigenvalue-minimisations  :    32
 total energy-change (2. order) :-0.1276197E+01  (-0.7773340E-01)
 number of electron       6.0000013 magnetization       1.9131467
 augmentation part        0.5215668 magnetization       0.3574917

 Broyden mixing:
  rms(total) = 0.44904E-01    rms(broyden)= 0.44736E-01
  rms(prec ) = 0.46396E-01
  weight for this iteration     100.00

 eigenvalues of (default mixing * dielectric matrix)
  average eigenvalue GAMMA=   0.8901
  0.8901  0.8901

 Free energy of the ion-electron system (eV)
  ---------------------------------------------------
  alpha Z        PSCENC =         0.33084394
  Ewald energy   TEWEN  =       -97.75476090
  -Hartree energ DENC   =      -278.14496211
  -exchange      EXHF   =         0.00000000
  -V(xc)+E(xc)   XCENC  =        27.25218713
  PAW double counting   =       357.50742195     -359.27143950
  entropy T*S    EENTRO =        -0.15406502
  eigenvalues    EBANDS =       -83.20397625
  atomic energy  EATOM  =       432.26319604
  Solvation  Ediel_sol  =         0.00000000
  ---------------------------------------------------
  free energy    TOTEN  =        -1.17555473 eV

  energy without entropy =       -1.02148971  energy(sigma->0) =       -1.09852222


--------------------------------------------------------------------------------------------------------




----------------------------------------- Iteration    1(   8)  ---------------------------------------


    POTLOK:  cpu time    0.2589: real time    0.2590
    SETDIJ:  cpu time    0.0053: real time    0.0053
     EDDAV:  cpu time    0.0829: real time    0.0829
       DOS:  cpu time    0.0001: real time    0.0001
    CHARGE:  cpu time    0.0213: real time    0.0213
    MIXING:  cpu time    0.0059: real time    0.0059
    --------------------------------------------
      LOOP:  cpu time    0.3758: real time    0.3763

 eigenvalue-minimisations  :    64
 total energy-change (2. order) :-0.3787721E+00  (-0.9992068E-02)
 number of electron       6.0000016 magnetization       1.9089426
 augmentation part        0.5171805 magnetization       0.3477872

 Broyden mixing:
  rms(total) = 0.95780E-01    rms(broyden)= 0.94164E-01
  rms(prec ) = 0.10502E+00
  weight for this iteration     100.00

 eigenvalues of (default mixing * dielectric matrix)
  average eigenvalue GAMMA=   0.6393
  0.8980  0.8980  0.1217

 Free energy of the ion-electron system (eV)
  ---------------------------------------------------
  alpha Z        PSCENC =         0.33084394
  Ewald energy   TEWEN  =       -97.75476090
  -Hartree energ DENC   =      -278.05125453
  -exchange      EXHF   =         0.00000000
  -V(xc)+E(xc)   XCENC  =        26.91193368
  PAW double counting   =       358.75828825     -360.50915866
  entropy T*S    EENTRO =        -0.15019452
  eigenvalues    EBANDS =       -83.35322014
  atomic energy  EATOM  =       432.26319604
  Solvation  Ediel_sol  =         0.00000000
  ---------------------------------------------------
  free energy    TOTEN  =        -1.55432683 eV

  energy without entropy =       -1.40413232  energy(sigma->0) =       -1.47922957


--------------------------------------------------------------------------------------------------------




----------------------------------------- Iteration    1(   9)  ---------------------------------------


    POTLOK:  cpu time    0.2592: real time    0.2593
    SETDIJ:  cpu time    0.0053: real time    0.0053
     EDDAV:  cpu time    0.0484: real time    0.0485
       DOS:  cpu time    0.0001: real time    0.0001
    CHARGE:  cpu time    0.0205: real time    0.0205
    MIXING:  cpu time    0.0064: real time    0.0064
    --------------------------------------------
      LOOP:  cpu time    0.3414: real time    0.3419

 eigenvalue-minimisations  :    32
 total energy-change (2. order) : 0.2247113E-01  (-0.1138312E-03)
 number of electron       6.0000014 magnetization       1.9279856
 augmentation part        0.5169669 magnetization       0.3668037

 Broyden mixing:
  rms(total) = 0.54480E-01    rms(broyden)= 0.53938E-01
  rms(prec ) = 0.60311E-01
  weight for this iteration     100.00

 eigenvalues of (default mixing * dielectric matrix)
  average eigenvalue GAMMA=   0.7059
  0.9618  0.9618  0.5875  0.3123

 Free energy of the ion-electron system (eV)
  ---------------------------------------------------
  alpha Z        PSCENC =         0.33084394
  Ewald energy   TEWEN  =       -97.75476090
  -Hartree energ DENC   =      -278.11084753
  -exchange      EXHF   =         0.00000000
  -V(xc)+E(xc)   XCENC  =        26.93151810
  PAW double counting   =       358.71983742     -360.46862098
  entropy T*S    EENTRO =        -0.15330705
  eigenvalues    EBANDS =       -83.28971475
  atomic energy  EATOM  =       432.26319604
  Solvation  Ediel_sol  =         0.00000000
  ---------------------------------------------------
  free energy    TOTEN  =        -1.53185570 eV

  energy without entropy =       -1.37854865  energy(sigma->0) =       -1.45520218


--------------------------------------------------------------------------------------------------------




----------------------------------------- Iteration    1(  10)  ---------------------------------------


    POTLOK:  cpu time    0.2591: real time    0.2592
    SETDIJ:  cpu time    0.0052: real time    0.0052
     EDDAV:  cpu time    0.0483: real time    0.0483
       DOS:  cpu time    0.0001: real time    0.0001
    CHARGE:  cpu time    0.0205: real time    0.0205
    MIXING:  cpu time    0.0070: real time    0.0070
    --------------------------------------------
      LOOP:  cpu time    0.3416: real time    0.3421

 eigenvalue-minimisations  :    32
 total energy-change (2. order) :-0.4937143E-01  (-0.1197592E-02)
 number of electron       6.0000010 magnetization       1.9272204
 augmentation part        0.5171116 magnetization       0.3657003

 Broyden mixing:
  rms(total) = 0.50841E-01    rms(broyden)= 0.49513E-01
  rms(prec ) = 0.55576E-01
  weight for this iteration     100.00

 eigenvalues of (default mixing * dielectric matrix)
  average eigenvalue GAMMA=   0.6152
  0.9826  0.9826  0.6250  0.3113  0.1742

 Free energy of the ion-electron system (eV)
  ---------------------------------------------------
  alpha Z        PSCENC =         0.33084394
  Ewald energy   TEWEN  =       -97.75476090
  -Hartree energ DENC   =      -277.91460979
  -exchange      EXHF   =         0.00000000
  -V(xc)+E(xc)   XCENC  =        26.87266466
  PAW double counting   =       358.90739229     -360.66453176
  entropy T*S    EENTRO =        -0.15327919
  eigenvalues    EBANDS =       -83.46814242
  atomic energy  EATOM  =       432.26319604
  Solvation  Ediel_sol  =         0.00000000
  ---------------------------------------------------
  free energy    TOTEN  =        -1.58122713 eV

  energy without entropy =       -1.42794794  energy(sigma->0) =       -1.50458753


--------------------------------------------------------------------------------------------------------




----------------------------------------- Iteration    1(  11)  ---------------------------------------


    POTLOK:  cpu time    0.2682: real time    0.2683
    SETDIJ:  cpu time    0.0055: real time    0.0055
     EDDAV:  cpu time    0.0498: real time    0.0498
       DOS:  cpu time    0.0001: real time    0.0001
    CHARGE:  cpu time    0.0216: real time    0.0217
    MIXING:  cpu time    0.0079: real time    0.0079
    --------------------------------------------
      LOOP:  cpu time    0.3545: real time    0.3550

 eigenvalue-minimisations  :    32
 total energy-change (2. order) :-0.4677967E-03  (-0.2808344E-04)
 number of electron       6.0000010 magnetization       1.9932656
 augmentation part        0.5170548 magnetization       0.4316935

 Broyden mixing:
  rms(total) = 0.40188E-01    rms(broyden)= 0.40093E-01
  rms(prec ) = 0.45241E-01
  weight for this iteration     100.00

 eigenvalues of (default mixing * dielectric matrix)
  average eigenvalue GAMMA=   0.8072
  1.3046  1.3046  0.9801  0.6297  0.3122  0.3122

 Free energy of the ion-electron system (eV)
  ---------------------------------------------------
  alpha Z        PSCENC =         0.33084394
  Ewald energy   TEWEN  =       -97.75476090
  -Hartree energ DENC   =      -277.91937181
  -exchange      EXHF   =         0.00000000
  -V(xc)+E(xc)   XCENC  =        26.87228591
  PAW double counting   =       358.89960771     -360.65771302
  entropy T*S    EENTRO =        -0.15368967
  eigenvalues    EBANDS =       -83.46209312
  atomic energy  EATOM  =       432.26319604
  Solvation  Ediel_sol  =         0.00000000
  ---------------------------------------------------
  free energy    TOTEN  =        -1.58169493 eV

  energy without entropy =       -1.42800525  energy(sigma->0) =       -1.50485009


--------------------------------------------------------------------------------------------------------




----------------------------------------- Iteration    1(  12)  ---------------------------------------


    POTLOK:  cpu time    0.2586: real time    0.2607
    SETDIJ:  cpu time    0.0054: real time    0.0054
     EDDAV:  cpu time    0.0741: real time    0.0742
       DOS:  cpu time    0.0001: real time    0.0001
    CHARGE:  cpu time    0.0205: real time    0.0205
    MIXING:  cpu time    0.0079: real time    0.0079
    --------------------------------------------
      LOOP:  cpu time    0.3682: real time    0.3706

 eigenvalue-minimisations  :    56
 total energy-change (2. order) :-0.7972023E-01  (-0.2213807E-02)
 number of electron       6.0000013 magnetization       1.9959504
 augmentation part        0.5183365 magnetization       0.4337139

 Broyden mixing:
  rms(total) = 0.13361E-01    rms(broyden)= 0.98560E-02
  rms(prec ) = 0.11119E-01
  weight for this iteration     100.00
  WARNING: grid for Broyden might be to small

 eigenvalues of (default mixing * dielectric matrix)
  average eigenvalue GAMMA=   0.7793
  1.4593  1.0666  1.0666  0.6187  0.6187  0.3126  0.3126

 Free energy of the ion-electron system (eV)
  ---------------------------------------------------
  alpha Z        PSCENC =         0.33084394
  Ewald energy   TEWEN  =       -97.75476090
  -Hartree energ DENC   =      -277.27886882
  -exchange      EXHF   =         0.00000000
  -V(xc)+E(xc)   XCENC  =        26.75327204
  PAW double counting   =       359.40825959     -361.15410104
  entropy T*S    EENTRO =        -0.15425505
  eigenvalues    EBANDS =       -84.07500096
  atomic energy  EATOM  =       432.26319604
  Solvation  Ediel_sol  =         0.00000000
  ---------------------------------------------------
  free energy    TOTEN  =        -1.66141515 eV

  energy without entropy =       -1.50716010  energy(sigma->0) =       -1.58428763


--------------------------------------------------------------------------------------------------------




----------------------------------------- Iteration    1(  13)  ---------------------------------------


    POTLOK:  cpu time    0.2584: real time    0.2605
    SETDIJ:  cpu time    0.0053: real time    0.0053
     EDDAV:  cpu time    0.0567: real time    0.0568
       DOS:  cpu time    0.0001: real time    0.0001
    CHARGE:  cpu time    0.0205: real time    0.0205
    MIXING:  cpu time    0.0084: real time    0.0084
    --------------------------------------------
      LOOP:  cpu time    0.3509: real time    0.3534

 eigenvalue-minimisations  :    40
 total energy-change (2. order) :-0.6456899E-02  (-0.7576012E-04)
 number of electron       6.0000013 magnetization       1.9975894
 augmentation part        0.5178740 magnetization       0.4350731

 Broyden mixing:
  rms(total) = 0.89257E-02    rms(broyden)= 0.82134E-02
  rms(prec ) = 0.91508E-02
  weight for this iteration     100.00

 eigenvalues of (default mixing * dielectric matrix)
  average eigenvalue GAMMA=   0.7898
  1.4949  0.9899  0.9899  0.7993  0.7993  0.6214  0.3118  0.3118

 Free energy of the ion-electron system (eV)
  ---------------------------------------------------
  alpha Z        PSCENC =         0.33084394
  Ewald energy   TEWEN  =       -97.75476090
  -Hartree energ DENC   =      -277.36925473
  -exchange      EXHF   =         0.00000000
  -V(xc)+E(xc)   XCENC  =        26.75688204
  PAW double counting   =       359.64972993     -361.39863965
  entropy T*S    EENTRO =        -0.15421774
  eigenvalues    EBANDS =       -83.99165098
  atomic energy  EATOM  =       432.26319604
  Solvation  Ediel_sol  =         0.00000000
  ---------------------------------------------------
  free energy    TOTEN  =        -1.66787205 eV

  energy without entropy =       -1.51365431  energy(sigma->0) =       -1.59076318


--------------------------------------------------------------------------------------------------------




----------------------------------------- Iteration    1(  14)  ---------------------------------------


    POTLOK:  cpu time    0.2591: real time    0.2604
    SETDIJ:  cpu time    0.0053: real time    0.0053
     EDDAV:  cpu time    0.0567: real time    0.0577
       DOS:  cpu time    0.0001: real time    0.0001
    CHARGE:  cpu time    0.0206: real time    0.0206
    MIXING:  cpu time    0.0089: real time    0.0089
    --------------------------------------------
      LOOP:  cpu time    0.3521: real time    0.3547

 eigenvalue-minimisations  :    40
 total energy-change (2. order) :-0.7921136E-03  (-0.1060450E-04)
 number of electron       6.0000013 magnetization       2.0004192
 augmentation part        0.5177375 magnetization       0.4378076

 Broyden mixing:
  rms(total) = 0.70790E-02    rms(broyden)= 0.70450E-02
  rms(prec ) = 0.78315E-02
  weight for this iteration     100.00

 eigenvalues of (default mixing * dielectric matrix)
  average eigenvalue GAMMA=   0.8926
  0.3117  0.3117  1.6831  1.1746  1.1746  1.1622  0.8744  0.6242  0.7170

 Free energy of the ion-electron system (eV)
  ---------------------------------------------------
  alpha Z        PSCENC =         0.33084394
  Ewald energy   TEWEN  =       -97.75476090
  -Hartree energ DENC   =      -277.38073960
  -exchange      EXHF   =         0.00000000
  -V(xc)+E(xc)   XCENC  =        26.75756464
  PAW double counting   =       359.81051555     -361.56003181
  entropy T*S    EENTRO =        -0.15423019
  eigenvalues    EBANDS =       -83.98102184
  atomic energy  EATOM  =       432.26319604
  Solvation  Ediel_sol  =         0.00000000
  ---------------------------------------------------
  free energy    TOTEN  =        -1.66866416 eV

  energy without entropy =       -1.51443397  energy(sigma->0) =       -1.59154907


--------------------------------------------------------------------------------------------------------




----------------------------------------- Iteration    1(  15)  ---------------------------------------


    POTLOK:  cpu time    0.2591: real time    0.2593
    SETDIJ:  cpu time    0.0053: real time    0.0053
     EDDAV:  cpu time    0.0652: real time    0.0653
       DOS:  cpu time    0.0001: real time    0.0001
    --------------------------------------------
      LOOP:  cpu time    0.3309: real time    0.3314

 eigenvalue-minimisations  :    48
 total energy-change (2. order) :-0.6062115E-04  (-0.1544117E-04)
 number of electron       6.0000013 magnetization       2.0004192
 augmentation part        0.5177375 magnetization       0.4378076

 Free energy of the ion-electron system (eV)
  ---------------------------------------------------
  alpha Z        PSCENC =         0.33084394
  Ewald energy   TEWEN  =       -97.75476090
  -Hartree energ DENC   =      -277.34503473
  -exchange      EXHF   =         0.00000000
  -V(xc)+E(xc)   XCENC  =        26.75511008
  PAW double counting   =       360.08219705     -361.83242248
  entropy T*S    EENTRO =        -0.15426007
  eigenvalues    EBANDS =       -84.01359371
  atomic energy  EATOM  =       432.26319604
  Solvation  Ediel_sol  =         0.00000000
  ---------------------------------------------------
  free energy    TOTEN  =        -1.66872478 eV

  energy without entropy =       -1.51446471  energy(sigma->0) =       -1.59159475


--------------------------------------------------------------------------------------------------------




 average (electrostatic) potential at core
  the test charge radii are     0.7215
  (the norm of the test charge is              1.0000)
       1 -82.9992
 
 
 
 E-fermi :  -7.0790     XC(G=0):  -0.9244     alpha+bet : -0.1783


 spin component 1

 k-point     1 :       0.0000    0.0000    0.0000
  band No.  band energies     occupation 
      1     -25.0520      1.00000
      2     -10.0503      1.00000
      3     -10.0454      1.00000
      4     -10.0432      1.00000
      5      -0.5837      0.00000
      6       1.7405      0.00000
      7       1.9223      0.00000
      8       2.0419      0.00000

 spin component 2

 k-point     1 :       0.0000    0.0000    0.0000
  band No.  band energies     occupation 
      1     -21.8045      1.00000
      2      -7.0192      0.33606
      3      -7.0177      0.33244
      4      -7.0174      0.33150
      5      -0.3513      0.00000
      6       2.0072      0.00000
      7       2.0885      0.00000
      8       2.3008      0.00000


--------------------------------------------------------------------------------------------------------


 soft charge-density along one line, spin component           1
         0         1         2         3         4         5         6         7         8         9
 total charge-density along one line
 
 soft charge-density along one line, spin component           2
         0         1         2         3         4         5         6         7         8         9
 total charge-density along one line
 
 pseudopotential strength for first ion, spin component:           1
 14.642 -18.010  -0.000  -0.000  -0.000   0.000   0.000   0.000
-18.010  22.188   0.000   0.000   0.000  -0.000  -0.000  -0.000
 -0.000   0.000 -11.451   0.000  -0.000  14.357  -0.000   0.000
 -0.000   0.000   0.000 -11.452  -0.000  -0.000  14.358   0.000
 -0.000   0.000  -0.000  -0.000 -11.450   0.000   0.000  14.356
  0.000  -0.000  14.357  -0.000   0.000 -17.962   0.000  -0.000
  0.000  -0.000  -0.000  14.358   0.000   0.000 -17.964  -0.000
  0.000  -0.000   0.000   0.000  14.356  -0.000  -0.000 -17.961
 pseudopotential strength for first ion, spin component:           2
 13.710 -16.807  -0.000  -0.000  -0.000   0.000   0.000   0.000
-16.807  20.637   0.000   0.000   0.000  -0.000  -0.000  -0.000
 -0.000   0.000 -10.613  -0.000  -0.000  13.185   0.000   0.000
 -0.000   0.000  -0.000 -10.614  -0.000   0.000  13.186   0.000
 -0.000   0.000  -0.000  -0.000 -10.614   0.000   0.000  13.186
  0.000  -0.000  13.185   0.000   0.000 -16.314  -0.000  -0.000
  0.000  -0.000   0.000  13.186   0.000  -0.000 -16.316  -0.000
  0.000  -0.000   0.000   0.000  13.186  -0.000  -0.000 -16.316
 total augmentation occupancy for first ion, spin component:           1
  2.296   0.126   0.000   0.000   0.000   0.000   0.000   0.000
  0.126   0.009   0.000   0.000   0.000   0.000   0.000   0.000
  0.000   0.000   1.372   0.000  -0.000   0.015   0.000   0.000
  0.000   0.000   0.000   1.386   0.000   0.000   0.016   0.000
  0.000   0.000  -0.000   0.000   1.389  -0.000   0.000   0.016
  0.000   0.000   0.015   0.000  -0.000   0.001   0.000  -0.000
  0.000   0.000   0.000   0.016   0.000   0.000   0.001   0.000
  0.000   0.000   0.000   0.000   0.016   0.000   0.000   0.001
 total augmentation occupancy for first ion, spin component:           2
 -0.133  -0.074   0.000   0.000   0.000   0.000   0.000   0.000
 -0.074  -0.008   0.000   0.000   0.000   0.000   0.000   0.000
  0.000   0.000   0.681   0.000  -0.000  -0.017   0.000  -0.000
  0.000   0.000   0.000   0.666   0.000   0.000  -0.018   0.000
  0.000   0.000  -0.000   0.000   0.662   0.000   0.000  -0.018
  0.000   0.000  -0.017   0.000   0.000  -0.001   0.000   0.000
  0.000   0.000   0.000  -0.018   0.000   0.000  -0.001   0.000
  0.000   0.000  -0.000   0.000  -0.018  -0.000   0.000  -0.001


------------------------ aborting loop because EDIFF is reached ----------------------------------------


    CHARGE:  cpu time    0.0202: real time    0.0203
    FORLOC:  cpu time    0.0035: real time    0.0035
    FORNL :  cpu time    0.0102: real time    0.0102
    STRESS:  cpu time    0.0433: real time    0.0434
    FORCOR:  cpu time    0.2562: real time    0.2564
    FORHAR:  cpu time    0.0225: real time    0.0225
    MIXING:  cpu time    0.0096: real time    0.0096
    OFIELD:  cpu time    0.0002: real time    0.0002

  FORCE on cell =-STRESS in cart. coord.  units (eV):
  Direction    XX          YY          ZZ          XY          YZ          ZX
  --------------------------------------------------------------------------------------
  Alpha Z     0.33084     0.33084     0.33084
  Ewald     -25.83867   -32.64485   -39.27124     0.00000    -0.00000    -0.00000
  Hartree    98.92120    92.38068    86.00383    -0.00000    -0.00000    -0.00000
  E(xc)     -28.67212   -28.67269   -28.67347    -0.00000    -0.00000     0.00000
  Local    -157.56672  -144.12602  -131.09848    -0.00000    -0.00000     0.00000
  n-local   -20.79021   -20.76564   -20.75813    -0.00000    -0.00000     0.00000
  augment     5.74342     5.72983     5.72382     0.00000     0.00000    -0.00000
  Kinetic   127.06331   126.95670   126.92572     0.00000     0.00000    -0.00000
  Fock        0.00000     0.00000     0.00000     0.00000     0.00000     0.00000
  -------------------------------------------------------------------------------------
  Total      -0.80895    -0.81115    -0.81710     0.00000     0.00000     0.00000
  in kB      -3.08589    -3.09430    -3.11698     0.00000     0.00000     0.00000
  external pressure =       -3.10 kB  Pullay stress =        0.00 kB


 VOLUME and BASIS-vectors are now :
 -----------------------------------------------------------------------------
  energy-cutoff  :      400.00
  volume of cell :      420.00
      direct lattice vectors                 reciprocal lattice vectors
     7.000000000  0.000000000  0.000000000     0.142857143  0.000000000  0.000000000
     0.000000000  7.500000000  0.000000000     0.000000000  0.133333333  0.000000000
     0.000000000  0.000000000  8.000000000     0.000000000  0.000000000  0.125000000

  length of vectors
     7.000000000  7.500000000  8.000000000     0.142857143  0.133333333  0.125000000


 FORCES acting on ions
    electron-ion (+dipol)            ewald-force                    non-local-force                 convergence-correction
 -----------------------------------------------------------------------------------------------
   0.233E-15 -.946E-15 -.287E-14   0.494E-16 -.111E-16 -.178E-16   0.331E-22 -.265E-21 0.000E+00   -.178E-14 -.321E-13 -.163E-13
 -----------------------------------------------------------------------------------------------
   0.233E-15 -.946E-15 -.287E-14   0.494E-16 -.111E-16 -.178E-16   0.331E-22 -.265E-21 0.000E+00   -.178E-14 -.321E-13 -.163E-13
 
 
 POSITION                                       TOTAL-FORCE (eV/Angst)
 -----------------------------------------------------------------------------------
      0.00000      0.00000      0.00000        -0.000000     -0.000000      0.000000
 -----------------------------------------------------------------------------------
    total drift:                               -0.000000     -0.000000     -0.000000


--------------------------------------------------------------------------------------------------------



  FREE ENERGIE OF THE ION-ELECTRON SYSTEM (eV)
  ---------------------------------------------------
  free  energy   TOTEN  =        -1.66872478 eV

  energy  without entropy=       -1.51446471  energy(sigma->0) =       -1.59159475
 


--------------------------------------------------------------------------------------------------------


    POTLOK:  cpu time    0.2649: real time    0.2650


--------------------------------------------------------------------------------------------------------


 stress matrix after NEB project (eV)
     -0.80895     -0.00000      0.00000
      0.00000     -0.81115      0.00000
      0.00000      0.00000     -0.81710
  FORCES: max atom, RMS     0.000000    0.000000
  FORCE total and by dimension    0.000000    0.000000
  Stress total and by dimension    1.407126    0.817096
 writing wavefunctions
     LOOP+:  cpu time    6.6284: real time    6.6547
    4ORBIT:  cpu time    0.0000: real time    0.0000

 total amount of memory used by VASP on root node    60517. kBytes
========================================================================

   base      :      30000. kBytes
   nonl-proj :        305. kBytes
   fftplans  :       8156. kBytes
   grid      :      21565. kBytes
   one-center:          3. kBytes
   wavefun   :        488. kBytes
 
  
  
 General timing and accounting informations for this job:
 ========================================================
  
                  Total CPU time used (sec):        9.769
                            User time (sec):        7.077
                          System time (sec):        2.692
                         Elapsed time (sec):       10.220
  
                   Maximum memory used (kb):      111772.
                   Average memory used (kb):           0.
  
                          Minor page faults:        64138
                          Major page faults:           94
                 Voluntary context switches:          844
