   2   2   0   0
  0.2560000E+03  0.8000000E-09  0.8000000E-09  0.8000000E-09  0.5000000E-15
  1.000000000000000E-004
  CAR 
 CO dimer in a box                       
      3.96744051    -30.94160544  301     -7.78345345      1.00000000
    -30.942  0.0000E+00  0.0000E+00
    -30.825  0.0000E+00  0.0000E+00
    -30.709  0.0000E+00  0.0000E+00
    -30.593  0.0000E+00  0.0000E+00
    -30.476  0.0000E+00  0.0000E+00
    -30.360  0.0000E+00  0.0000E+00
    -30.243  0.0000E+00  0.0000E+00
    -30.127  0.0000E+00  0.0000E+00
    -30.011  0.6946E-13  0.8082E-14
    -29.894  0.2776E-10  0.3238E-11
    -29.778  0.5711E-08  0.6678E-09
    -29.662  0.6059E-06  0.7117E-07
    -29.545  0.3323E-04  0.3938E-05
    -29.429  0.9457E-03  0.1140E-03
    -29.313  0.1401E-01  0.1745E-02
    -29.196  0.1085E+00  0.1437E-01
    -29.080  0.4411E+00  0.6570E-01
    -28.963  0.9434E+00  0.1755E+00
    -28.847  0.1064E+01  0.2992E+00
    -28.731  0.6324E+00  0.3728E+00
    -28.614  0.1980E+00  0.3959E+00
    -28.498  0.3257E-01  0.3997E+00
    -28.382  0.2805E-02  0.4000E+00
    -28.265  0.1260E-03  0.4000E+00
    -28.149  0.2939E-05  0.4000E+00
    -28.033  0.3549E-07  0.4000E+00
    -27.916  0.2212E-09  0.4000E+00
    -27.800  0.7095E-12  0.4000E+00
    -27.683  0.1145E-14  0.4000E+00
    -27.567  0.0000E+00  0.4000E+00
    -27.451  0.0000E+00  0.4000E+00
    -27.334  0.0000E+00  0.4000E+00
    -27.218  0.0000E+00  0.4000E+00
    -27.102  0.0000E+00  0.4000E+00
    -26.985  0.0000E+00  0.4000E+00
    -26.869  0.0000E+00  0.4000E+00
    -26.753  0.0000E+00  0.4000E+00
    -26.636  0.0000E+00  0.4000E+00
    -26.520  0.0000E+00  0.4000E+00
    -26.403  0.0000E+00  0.4000E+00
    -26.287  0.0000E+00  0.4000E+00
    -26.171  0.0000E+00  0.4000E+00
    -26.054  0.0000E+00  0.4000E+00
    -25.938  0.0000E+00  0.4000E+00
    -25.822  0.0000E+00  0.4000E+00
    -25.705  0.0000E+00  0.4000E+00
    -25.589  0.0000E+00  0.4000E+00
    -25.473  0.0000E+00  0.4000E+00
    -25.356  0.0000E+00  0.4000E+00
    -25.240  0.0000E+00  0.4000E+00
    -25.123  0.0000E+00  0.4000E+00
    -25.007  0.0000E+00  0.4000E+00
    -24.891  0.0000E+00  0.4000E+00
    -24.774  0.0000E+00  0.4000E+00
    -24.658  0.0000E+00  0.4000E+00
    -24.542  0.0000E+00  0.4000E+00
    -24.425  0.0000E+00  0.4000E+00
    -24.309  0.0000E+00  0.4000E+00
    -24.193  0.0000E+00  0.4000E+00
    -24.076  0.0000E+00  0.4000E+00
    -23.960  0.0000E+00  0.4000E+00
    -23.843  0.0000E+00  0.4000E+00
    -23.727  0.0000E+00  0.4000E+00
    -23.611  0.0000E+00  0.4000E+00
    -23.494  0.0000E+00  0.4000E+00
    -23.378  0.0000E+00  0.4000E+00
    -23.262  0.0000E+00  0.4000E+00
    -23.145  0.0000E+00  0.4000E+00
    -23.029  0.0000E+00  0.4000E+00
    -22.913  0.0000E+00  0.4000E+00
    -22.796  0.0000E+00  0.4000E+00
    -22.680  0.0000E+00  0.4000E+00
    -22.563  0.0000E+00  0.4000E+00
    -22.447  0.0000E+00  0.4000E+00
    -22.331  0.0000E+00  0.4000E+00
    -22.214  0.0000E+00  0.4000E+00
    -22.098  0.0000E+00  0.4000E+00
    -21.982  0.0000E+00  0.4000E+00
    -21.865  0.0000E+00  0.4000E+00
    -21.749  0.0000E+00  0.4000E+00
    -21.633  0.0000E+00  0.4000E+00
    -21.516  0.0000E+00  0.4000E+00
    -21.400  0.0000E+00  0.4000E+00
    -21.283  0.0000E+00  0.4000E+00
    -21.167  0.0000E+00  0.4000E+00
    -21.051  0.0000E+00  0.4000E+00
    -20.934  0.0000E+00  0.4000E+00
    -20.818  0.0000E+00  0.4000E+00
    -20.702  0.0000E+00  0.4000E+00
    -20.585  0.0000E+00  0.4000E+00
    -20.469  0.0000E+00  0.4000E+00
    -20.353  0.0000E+00  0.4000E+00
    -20.236  0.0000E+00  0.4000E+00
    -20.120  0.0000E+00  0.4000E+00
    -20.003  0.0000E+00  0.4000E+00
    -19.887  0.0000E+00  0.4000E+00
    -19.771  0.0000E+00  0.4000E+00
    -19.654  0.0000E+00  0.4000E+00
    -19.538  0.0000E+00  0.4000E+00
    -19.422  0.0000E+00  0.4000E+00
    -19.305  0.0000E+00  0.4000E+00
    -19.189  0.0000E+00  0.4000E+00
    -19.073  0.0000E+00  0.4000E+00
    -18.956  0.0000E+00  0.4000E+00
    -18.840  0.0000E+00  0.4000E+00
    -18.723  0.0000E+00  0.4000E+00
    -18.607  0.0000E+00  0.4000E+00
    -18.491  0.0000E+00  0.4000E+00
    -18.374  0.0000E+00  0.4000E+00
    -18.258  0.0000E+00  0.4000E+00
    -18.142  0.0000E+00  0.4000E+00
    -18.025  0.0000E+00  0.4000E+00
    -17.909  0.0000E+00  0.4000E+00
    -17.793  0.0000E+00  0.4000E+00
    -17.676  0.0000E+00  0.4000E+00
    -17.560  0.0000E+00  0.4000E+00
    -17.443  0.0000E+00  0.4000E+00
    -17.327  0.0000E+00  0.4000E+00
    -17.211  0.0000E+00  0.4000E+00
    -17.094  0.0000E+00  0.4000E+00
    -16.978  0.0000E+00  0.4000E+00
    -16.862  0.0000E+00  0.4000E+00
    -16.745  0.0000E+00  0.4000E+00
    -16.629  0.0000E+00  0.4000E+00
    -16.513  0.0000E+00  0.4000E+00
    -16.396  0.0000E+00  0.4000E+00
    -16.280  0.0000E+00  0.4000E+00
    -16.163  0.0000E+00  0.4000E+00
    -16.047  0.0000E+00  0.4000E+00
    -15.931  0.0000E+00  0.4000E+00
    -15.814  0.0000E+00  0.4000E+00
    -15.698  0.0000E+00  0.4000E+00
    -15.582  0.0000E+00  0.4000E+00
    -15.465  0.0000E+00  0.4000E+00
    -15.349  0.0000E+00  0.4000E+00
    -15.233  0.0000E+00  0.4000E+00
    -15.116  0.0000E+00  0.4000E+00
    -15.000  0.0000E+00  0.4000E+00
    -14.883  0.9350E-14  0.4000E+00
    -14.767  0.4601E-11  0.4000E+00
    -14.651  0.1165E-08  0.4000E+00
    -14.534  0.1519E-06  0.4000E+00
    -14.418  0.1023E-04  0.4000E+00
    -14.302  0.3570E-03  0.4000E+00
    -14.185  0.6482E-02  0.4008E+00
    -14.069  0.6144E-01  0.4079E+00
    -13.953  0.3052E+00  0.4435E+00
    -13.836  0.7972E+00  0.5362E+00
    -13.720  0.1097E+01  0.6639E+00
    -13.603  0.7966E+00  0.7566E+00
    -13.487  0.3047E+00  0.7921E+00
    -13.371  0.6130E-01  0.7992E+00
    -13.254  0.6462E-02  0.8000E+00
    -13.138  0.3556E-03  0.8000E+00
    -13.022  0.1018E-04  0.8000E+00
    -12.905  0.1510E-06  0.8000E+00
    -12.789  0.1157E-08  0.8000E+00
    -12.673  0.4569E-11  0.8000E+00
    -12.556  0.2710E-13  0.8000E+00
    -12.440  0.8812E-11  0.8000E+00
    -12.323  0.2241E-08  0.8000E+00
    -12.207  0.2937E-06  0.8000E+00
    -12.091  0.1988E-04  0.8000E+00
    -11.974  0.6972E-03  0.8001E+00
    -11.858  0.1272E-01  0.8016E+00
    -11.742  0.1211E+00  0.8157E+00
    -11.625  0.6046E+00  0.8860E+00
    -11.509  0.1587E+01  0.1071E+01
    -11.393  0.2195E+01  0.1326E+01
    -11.276  0.1601E+01  0.1512E+01
    -11.160  0.6153E+00  0.1584E+01
    -11.043  0.1243E+00  0.1598E+01
    -10.927  0.1317E-01  0.1600E+01
    -10.811  0.7284E-03  0.1600E+01
    -10.694  0.2095E-04  0.1600E+01
    -10.578  0.3124E-06  0.1600E+01
    -10.462  0.2405E-08  0.1600E+01
    -10.345  0.9543E-11  0.1600E+01
    -10.229  0.1985E-13  0.1600E+01
    -10.113  0.0000E+00  0.1600E+01
     -9.996  0.0000E+00  0.1600E+01
     -9.880  0.1908E-15  0.1600E+01
     -9.763  0.1841E-12  0.1600E+01
     -9.647  0.6642E-10  0.1600E+01
     -9.531  0.1233E-07  0.1600E+01
     -9.414  0.1180E-05  0.1600E+01
     -9.298  0.5841E-04  0.1600E+01
     -9.182  0.1501E-02  0.1600E+01
     -9.065  0.2011E-01  0.1603E+01
     -8.949  0.1408E+00  0.1619E+01
     -8.833  0.5178E+00  0.1679E+01
     -8.716  0.1002E+01  0.1796E+01
     -8.600  0.1023E+01  0.1915E+01
     -8.483  0.5506E+00  0.1979E+01
     -8.367  0.1560E+00  0.1997E+01
     -8.251  0.2321E-01  0.2000E+01
     -8.134  0.1807E-02  0.2000E+01
     -8.018  0.7329E-04  0.2000E+01
     -7.902  0.1543E-05  0.2000E+01
     -7.785  0.1682E-07  0.2000E+01
     -7.669  0.9456E-10  0.2000E+01
     -7.553  0.2736E-12  0.2000E+01
     -7.436  0.3816E-15  0.2000E+01
     -7.320  0.0000E+00  0.2000E+01
     -7.203  0.0000E+00  0.2000E+01
     -7.087  0.0000E+00  0.2000E+01
     -6.971  0.0000E+00  0.2000E+01
     -6.854  0.0000E+00  0.2000E+01
     -6.738  0.0000E+00  0.2000E+01
     -6.622  0.0000E+00  0.2000E+01
     -6.505  0.0000E+00  0.2000E+01
     -6.389  0.0000E+00  0.2000E+01
     -6.273  0.0000E+00  0.2000E+01
     -6.156  0.0000E+00  0.2000E+01
     -6.040  0.0000E+00  0.2000E+01
     -5.923  0.0000E+00  0.2000E+01
     -5.807  0.0000E+00  0.2000E+01
     -5.691  0.0000E+00  0.2000E+01
     -5.574  0.0000E+00  0.2000E+01
     -5.458  0.0000E+00  0.2000E+01
     -5.342  0.0000E+00  0.2000E+01
     -5.225  0.0000E+00  0.2000E+01
     -5.109  0.0000E+00  0.2000E+01
     -4.993  0.0000E+00  0.2000E+01
     -4.876  0.0000E+00  0.2000E+01
     -4.760  0.0000E+00  0.2000E+01
     -4.643  0.0000E+00  0.2000E+01
     -4.527  0.0000E+00  0.2000E+01
     -4.411  0.0000E+00  0.2000E+01
     -4.294  0.0000E+00  0.2000E+01
     -4.178  0.0000E+00  0.2000E+01
     -4.062  0.0000E+00  0.2000E+01
     -3.945  0.0000E+00  0.2000E+01
     -3.829  0.0000E+00  0.2000E+01
     -3.713  0.0000E+00  0.2000E+01
     -3.596  0.0000E+00  0.2000E+01
     -3.480  0.0000E+00  0.2000E+01
     -3.363  0.0000E+00  0.2000E+01
     -3.247  0.0000E+00  0.2000E+01
     -3.131  0.0000E+00  0.2000E+01
     -3.014  0.0000E+00  0.2000E+01
     -2.898  0.0000E+00  0.2000E+01
     -2.782  0.9541E-13  0.2000E+01
     -2.665  0.3960E-10  0.2000E+01
     -2.549  0.8477E-08  0.2000E+01
     -2.433  0.9353E-06  0.2000E+01
     -2.316  0.5335E-04  0.2000E+01
     -2.200  0.1578E-02  0.2000E+01
     -2.083  0.2431E-01  0.2003E+01
     -1.967  0.1957E+00  0.2026E+01
     -1.851  0.8263E+00  0.2122E+01
     -1.734  0.1836E+01  0.2336E+01
     -1.618  0.2150E+01  0.2586E+01
     -1.502  0.1328E+01  0.2740E+01
     -1.385  0.4321E+00  0.2791E+01
     -1.269  0.7385E-01  0.2799E+01
     -1.153  0.6610E-02  0.2800E+01
     -1.036  0.3086E-03  0.2800E+01
     -0.920  0.7695E-05  0.2800E+01
     -0.803  0.1353E-04  0.2800E+01
     -0.687  0.4478E-03  0.2800E+01
     -0.571  0.7764E-02  0.2801E+01
     -0.454  0.7029E-01  0.2809E+01
     -0.338  0.3336E+00  0.2848E+01
     -0.222  0.8328E+00  0.2945E+01
     -0.105  0.1096E+01  0.3072E+01
      0.011  0.7601E+00  0.3161E+01
      0.127  0.2779E+00  0.3193E+01
      0.244  0.5340E-01  0.3199E+01
      0.360  0.5377E-02  0.3200E+01
      0.477  0.2826E-03  0.3200E+01
      0.593  0.7723E-05  0.3200E+01
      0.709  0.1093E-06  0.3200E+01
      0.826  0.9285E-09  0.3200E+01
      0.942  0.2210E-07  0.3200E+01
      1.058  0.1954E-05  0.3200E+01
      1.175  0.8940E-04  0.3200E+01
      1.291  0.2126E-02  0.3200E+01
      1.407  0.2642E-01  0.3203E+01
      1.524  0.1732E+00  0.3223E+01
      1.640  0.6126E+00  0.3295E+01
      1.757  0.1237E+01  0.3439E+01
      1.873  0.1615E+01  0.3627E+01
      1.989  0.1553E+01  0.3807E+01
      2.106  0.1072E+01  0.3932E+01
      2.222  0.4588E+00  0.3985E+01
      2.338  0.1098E+00  0.3998E+01
      2.455  0.1406E-01  0.4000E+01
      2.571  0.9466E-03  0.4000E+01
      2.687  0.3324E-04  0.4000E+01
      2.804  0.6059E-06  0.4000E+01
      2.920  0.5711E-08  0.4000E+01
      3.037  0.2776E-10  0.4000E+01
      3.153  0.6946E-13  0.4000E+01
      3.269  0.0000E+00  0.4000E+01
      3.386  0.0000E+00  0.4000E+01
      3.502  0.0000E+00  0.4000E+01
      3.618  0.0000E+00  0.4000E+01
      3.735  0.0000E+00  0.4000E+01
      3.851  0.0000E+00  0.4000E+01
      3.967  0.0000E+00  0.4000E+01
