       N       E                     dE             d eps       ncg     rms          rms(c)
DAV:   1     0.898591631354E+02    0.89859E+02   -0.29972E+03    20   0.706E+02
DAV:   2     0.171952863054E+02   -0.72664E+02   -0.71796E+02    36   0.131E+02
DAV:   3    -0.132608679505E+02   -0.30456E+02   -0.30443E+02    32   0.849E+01
DAV:   4    -0.157334903764E+02   -0.24726E+01   -0.24725E+01    32   0.235E+01
DAV:   5    -0.157410858486E+02   -0.75955E-02   -0.75952E-02    30   0.146E+00    0.297E+01
DAV:   6    -0.150969672316E+02    0.64412E+00   -0.32762E+00    20   0.114E+01    0.200E+01
DAV:   7    -0.150422417611E+02    0.54725E-01   -0.26706E+00    30   0.945E+00    0.268E+00
DAV:   8    -0.149204739736E+02    0.12177E+00   -0.83645E-01    24   0.498E+00    0.230E+00
DAV:   9    -0.149229293030E+02   -0.24553E-02   -0.31691E-02    28   0.152E+00    0.365E-01
DAV:  10    -0.149226485550E+02    0.28075E-03   -0.77598E-03    24   0.660E-01    0.434E-01
DAV:  11    -0.149242273677E+02   -0.15788E-02   -0.58770E-04    22   0.193E-01    0.853E-02
DAV:  12    -0.149247337483E+02   -0.50638E-03   -0.19753E-04    24   0.929E-02    0.563E-02
DAV:  13    -0.149260901229E+02   -0.13564E-02   -0.18843E-04    20   0.709E-02    0.490E-02
DAV:  14    -0.149266107153E+02   -0.52059E-03   -0.59627E-05    24   0.370E-02    0.305E-02
DAV:  15    -0.149269612392E+02   -0.35052E-03   -0.44433E-05    24   0.303E-02    0.947E-03
DAV:  16    -0.149269844632E+02   -0.23224E-04   -0.85048E-07    22   0.612E-03
   1 F= -.14926984E+02 E0= -.14926984E+02  d E =-.149270E+02
       N       E                     dE             d eps       ncg     rms          rms(c)
DAV:   1    -0.145597526384E+02    0.36721E+00   -0.38607E+01    20   0.729E+01    0.149E+01
DAV:   2    -0.145555995094E+02    0.41531E-02   -0.51919E-01    20   0.649E+00    0.252E+00
DAV:   3    -0.145351154042E+02    0.20484E-01   -0.41254E-02    40   0.181E+00    0.182E+00
DAV:   4    -0.145303475029E+02    0.47679E-02   -0.24235E-02    24   0.138E+00    0.712E-01
DAV:   5    -0.145306859802E+02   -0.33848E-03   -0.10872E-03    24   0.316E-01    0.268E-01
DAV:   6    -0.145308653611E+02   -0.17938E-03   -0.56414E-05    24   0.666E-02    0.160E-01
DAV:   7    -0.145311485230E+02   -0.28316E-03   -0.18909E-05    24   0.250E-02    0.339E-02
DAV:   8    -0.145313460051E+02   -0.19748E-03   -0.18480E-05    24   0.249E-02    0.165E-02
DAV:   9    -0.145314459077E+02   -0.99903E-04   -0.36568E-06    20   0.123E-02
   2 F= -.14531446E+02 E0= -.14531446E+02  d E =0.395539E+00
       N       E                     dE             d eps       ncg     rms          rms(c)
DAV:   1    -0.149705881275E+02   -0.43924E+00   -0.32080E+01    20   0.667E+01    0.800E+00
DAV:   2    -0.149425765770E+02    0.28012E-01   -0.33397E-01    20   0.526E+00    0.225E+00
DAV:   3    -0.149301855658E+02    0.12391E-01   -0.38919E-02    32   0.173E+00    0.136E+00
DAV:   4    -0.149296207901E+02    0.56478E-03   -0.87746E-03    20   0.913E-01    0.485E-01
DAV:   5    -0.149299803378E+02   -0.35955E-03   -0.62157E-04    20   0.232E-01    0.216E-01
DAV:   6    -0.149300776557E+02   -0.97318E-04   -0.36067E-04    20   0.167E-01
   3 F= -.14930078E+02 E0= -.14930078E+02  d E =-.309319E-02
