       N       E                     dE             d eps       ncg     rms          rms(c)
DAV:   1     0.384469864424E+02    0.38447E+02   -0.96726E+02    16   0.293E+02
DAV:   2     0.345967752333E+01   -0.34987E+02   -0.34942E+02    32   0.450E+01
DAV:   3    -0.244421465051E+00   -0.37041E+01   -0.34307E+01    16   0.308E+01
DAV:   4    -0.312489880256E+00   -0.68068E-01   -0.66911E-01    16   0.508E+00
DAV:   5    -0.313453098556E+00   -0.96322E-03   -0.96305E-03    32   0.506E-01    0.307E-01
DAV:   6    -0.314470890256E+00   -0.10178E-02   -0.17849E-03    16   0.332E-01    0.155E-01
DAV:   7    -0.314569343941E+00   -0.98454E-04   -0.23774E-04    16   0.137E-01
   1 F= -.31456934E+00 E0= -.16030702E+00  d E =-.308525E+00
