   1   1   0   0
  0.4200000E+03  0.7000000E-09  0.7500000E-09  0.8000000E-09  0.5000000E-15
  1.000000000000000E-004
  CAR 
 O atom in a box                         
      4.30083597    -27.05199650  301     -7.07901202      1.00000000
    -27.052  0.0000E+00  0.0000E+00  0.0000E+00  0.0000E+00
    -26.947  0.0000E+00  0.0000E+00  0.0000E+00  0.0000E+00
    -26.843  0.0000E+00  0.0000E+00  0.0000E+00  0.0000E+00
    -26.738  0.0000E+00  0.0000E+00  0.0000E+00  0.0000E+00
    -26.634  0.0000E+00  0.0000E+00  0.0000E+00  0.0000E+00
    -26.529  0.0000E+00  0.0000E+00  0.0000E+00  0.0000E+00
    -26.425  0.0000E+00  0.0000E+00  0.0000E+00  0.0000E+00
    -26.320  0.0000E+00  0.0000E+00  0.0000E+00  0.0000E+00
    -26.216  0.1062E-14  0.0000E+00  0.1110E-15  0.0000E+00
    -26.111  0.3256E-12  0.0000E+00  0.3414E-13  0.0000E+00
    -26.007  0.6934E-10  0.0000E+00  0.7281E-11  0.0000E+00
    -25.902  0.8632E-08  0.0000E+00  0.9094E-09  0.0000E+00
    -25.798  0.6292E-06  0.0000E+00  0.6666E-07  0.0000E+00
    -25.693  0.2689E-04  0.0000E+00  0.2877E-05  0.0000E+00
    -25.589  0.6753E-03  0.0000E+00  0.7346E-04  0.0000E+00
    -25.484  0.9985E-02  0.0000E+00  0.1117E-02  0.0000E+00
    -25.380  0.8708E-01  0.0000E+00  0.1022E-01  0.0000E+00
    -25.275  0.4490E+00  0.0000E+00  0.5714E-01  0.0000E+00
    -25.171  0.1371E+01  0.0000E+00  0.2004E+00  0.0000E+00
    -25.066  0.2481E+01  0.0000E+00  0.4597E+00  0.0000E+00
    -24.962  0.2665E+01  0.0000E+00  0.7382E+00  0.0000E+00
    -24.857  0.1699E+01  0.0000E+00  0.9157E+00  0.0000E+00
    -24.753  0.6422E+00  0.0000E+00  0.9828E+00  0.0000E+00
    -24.648  0.1438E+00  0.0000E+00  0.9978E+00  0.0000E+00
    -24.544  0.1905E-01  0.0000E+00  0.9998E+00  0.0000E+00
    -24.439  0.1489E-02  0.0000E+00  0.1000E+01  0.0000E+00
    -24.335  0.6858E-04  0.0000E+00  0.1000E+01  0.0000E+00
    -24.230  0.1857E-05  0.0000E+00  0.1000E+01  0.0000E+00
    -24.126  0.2949E-07  0.0000E+00  0.1000E+01  0.0000E+00
    -24.021  0.2744E-09  0.0000E+00  0.1000E+01  0.0000E+00
    -23.917  0.1494E-11  0.0000E+00  0.1000E+01  0.0000E+00
    -23.812  0.4249E-14  0.0000E+00  0.1000E+01  0.0000E+00
    -23.708  0.0000E+00  0.0000E+00  0.1000E+01  0.0000E+00
    -23.603  0.0000E+00  0.0000E+00  0.1000E+01  0.0000E+00
    -23.499  0.0000E+00  0.0000E+00  0.1000E+01  0.0000E+00
    -23.394  0.0000E+00  0.0000E+00  0.1000E+01  0.0000E+00
    -23.290  0.0000E+00  0.0000E+00  0.1000E+01  0.0000E+00
    -23.185  0.0000E+00  0.0000E+00  0.1000E+01  0.0000E+00
    -23.081  0.0000E+00  0.0000E+00  0.1000E+01  0.0000E+00
    -22.976  0.0000E+00  0.5312E-15  0.1000E+01  0.5551E-16
    -22.872  0.0000E+00  0.2151E-12  0.1000E+01  0.2254E-13
    -22.767  0.0000E+00  0.4762E-10  0.1000E+01  0.4999E-11
    -22.663  0.0000E+00  0.6166E-08  0.1000E+01  0.6494E-09
    -22.558  0.0000E+00  0.4674E-06  0.1000E+01  0.4950E-07
    -22.454  0.0000E+00  0.2078E-04  0.1000E+01  0.2221E-05
    -22.349  0.0000E+00  0.5426E-03  0.1000E+01  0.5893E-04
    -22.245  0.0000E+00  0.8340E-02  0.1000E+01  0.9305E-03
    -22.140  0.0000E+00  0.7561E-01  0.1000E+01  0.8832E-02
    -22.036  0.0000E+00  0.4051E+00  0.1000E+01  0.5117E-01
    -21.931  0.0000E+00  0.1285E+01  0.1000E+01  0.1855E+00
    -21.827  0.0000E+00  0.2418E+01  0.1000E+01  0.4382E+00
    -21.722  0.0000E+00  0.2698E+01  0.1000E+01  0.7202E+00
    -21.618  0.0000E+00  0.1787E+01  0.1000E+01  0.9070E+00
    -21.513  0.0000E+00  0.7022E+00  0.1000E+01  0.9804E+00
    -21.408  0.0000E+00  0.1634E+00  0.1000E+01  0.9974E+00
    -21.304  0.0000E+00  0.2250E-01  0.1000E+01  0.9998E+00
    -21.199  0.0000E+00  0.1829E-02  0.1000E+01  0.1000E+01
    -21.095  0.0000E+00  0.8756E-04  0.1000E+01  0.1000E+01
    -20.990  0.0000E+00  0.2465E-05  0.1000E+01  0.1000E+01
    -20.886  0.0000E+00  0.4072E-07  0.1000E+01  0.1000E+01
    -20.781  0.0000E+00  0.3941E-09  0.1000E+01  0.1000E+01
    -20.677  0.0000E+00  0.2230E-11  0.1000E+01  0.1000E+01
    -20.572  0.0000E+00  0.7436E-14  0.1000E+01  0.1000E+01
    -20.468  0.0000E+00  0.0000E+00  0.1000E+01  0.1000E+01
    -20.363  0.0000E+00  0.0000E+00  0.1000E+01  0.1000E+01
    -20.259  0.0000E+00  0.0000E+00  0.1000E+01  0.1000E+01
    -20.154  0.0000E+00  0.0000E+00  0.1000E+01  0.1000E+01
    -20.050  0.0000E+00  0.0000E+00  0.1000E+01  0.1000E+01
    -19.945  0.0000E+00  0.0000E+00  0.1000E+01  0.1000E+01
    -19.841  0.0000E+00  0.0000E+00  0.1000E+01  0.1000E+01
    -19.736  0.0000E+00  0.0000E+00  0.1000E+01  0.1000E+01
    -19.632  0.0000E+00  0.0000E+00  0.1000E+01  0.1000E+01
    -19.527  0.0000E+00  0.0000E+00  0.1000E+01  0.1000E+01
    -19.423  0.0000E+00  0.0000E+00  0.1000E+01  0.1000E+01
    -19.318  0.0000E+00  0.0000E+00  0.1000E+01  0.1000E+01
    -19.214  0.0000E+00  0.0000E+00  0.1000E+01  0.1000E+01
    -19.109  0.0000E+00  0.0000E+00  0.1000E+01  0.1000E+01
    -19.005  0.0000E+00  0.0000E+00  0.1000E+01  0.1000E+01
    -18.900  0.0000E+00  0.0000E+00  0.1000E+01  0.1000E+01
    -18.796  0.0000E+00  0.0000E+00  0.1000E+01  0.1000E+01
    -18.691  0.0000E+00  0.0000E+00  0.1000E+01  0.1000E+01
    -18.587  0.0000E+00  0.0000E+00  0.1000E+01  0.1000E+01
    -18.482  0.0000E+00  0.0000E+00  0.1000E+01  0.1000E+01
    -18.378  0.0000E+00  0.0000E+00  0.1000E+01  0.1000E+01
    -18.273  0.0000E+00  0.0000E+00  0.1000E+01  0.1000E+01
    -18.169  0.0000E+00  0.0000E+00  0.1000E+01  0.1000E+01
    -18.064  0.0000E+00  0.0000E+00  0.1000E+01  0.1000E+01
    -17.960  0.0000E+00  0.0000E+00  0.1000E+01  0.1000E+01
    -17.855  0.0000E+00  0.0000E+00  0.1000E+01  0.1000E+01
    -17.751  0.0000E+00  0.0000E+00  0.1000E+01  0.1000E+01
    -17.646  0.0000E+00  0.0000E+00  0.1000E+01  0.1000E+01
    -17.542  0.0000E+00  0.0000E+00  0.1000E+01  0.1000E+01
    -17.437  0.0000E+00  0.0000E+00  0.1000E+01  0.1000E+01
    -17.333  0.0000E+00  0.0000E+00  0.1000E+01  0.1000E+01
    -17.228  0.0000E+00  0.0000E+00  0.1000E+01  0.1000E+01
    -17.124  0.0000E+00  0.0000E+00  0.1000E+01  0.1000E+01
    -17.019  0.0000E+00  0.0000E+00  0.1000E+01  0.1000E+01
    -16.915  0.0000E+00  0.0000E+00  0.1000E+01  0.1000E+01
    -16.810  0.0000E+00  0.0000E+00  0.1000E+01  0.1000E+01
    -16.706  0.0000E+00  0.0000E+00  0.1000E+01  0.1000E+01
    -16.601  0.0000E+00  0.0000E+00  0.1000E+01  0.1000E+01
    -16.497  0.0000E+00  0.0000E+00  0.1000E+01  0.1000E+01
    -16.392  0.0000E+00  0.0000E+00  0.1000E+01  0.1000E+01
    -16.288  0.0000E+00  0.0000E+00  0.1000E+01  0.1000E+01
    -16.183  0.0000E+00  0.0000E+00  0.1000E+01  0.1000E+01
    -16.079  0.0000E+00  0.0000E+00  0.1000E+01  0.1000E+01
    -15.974  0.0000E+00  0.0000E+00  0.1000E+01  0.1000E+01
    -15.869  0.0000E+00  0.0000E+00  0.1000E+01  0.1000E+01
    -15.765  0.0000E+00  0.0000E+00  0.1000E+01  0.1000E+01
    -15.660  0.0000E+00  0.0000E+00  0.1000E+01  0.1000E+01
    -15.556  0.0000E+00  0.0000E+00  0.1000E+01  0.1000E+01
    -15.451  0.0000E+00  0.0000E+00  0.1000E+01  0.1000E+01
    -15.347  0.0000E+00  0.0000E+00  0.1000E+01  0.1000E+01
    -15.242  0.0000E+00  0.0000E+00  0.1000E+01  0.1000E+01
    -15.138  0.0000E+00  0.0000E+00  0.1000E+01  0.1000E+01
    -15.033  0.0000E+00  0.0000E+00  0.1000E+01  0.1000E+01
    -14.929  0.0000E+00  0.0000E+00  0.1000E+01  0.1000E+01
    -14.824  0.0000E+00  0.0000E+00  0.1000E+01  0.1000E+01
    -14.720  0.0000E+00  0.0000E+00  0.1000E+01  0.1000E+01
    -14.615  0.0000E+00  0.0000E+00  0.1000E+01  0.1000E+01
    -14.511  0.0000E+00  0.0000E+00  0.1000E+01  0.1000E+01
    -14.406  0.0000E+00  0.0000E+00  0.1000E+01  0.1000E+01
    -14.302  0.0000E+00  0.0000E+00  0.1000E+01  0.1000E+01
    -14.197  0.0000E+00  0.0000E+00  0.1000E+01  0.1000E+01
    -14.093  0.0000E+00  0.0000E+00  0.1000E+01  0.1000E+01
    -13.988  0.0000E+00  0.0000E+00  0.1000E+01  0.1000E+01
    -13.884  0.0000E+00  0.0000E+00  0.1000E+01  0.1000E+01
    -13.779  0.0000E+00  0.0000E+00  0.1000E+01  0.1000E+01
    -13.675  0.0000E+00  0.0000E+00  0.1000E+01  0.1000E+01
    -13.570  0.0000E+00  0.0000E+00  0.1000E+01  0.1000E+01
    -13.466  0.0000E+00  0.0000E+00  0.1000E+01  0.1000E+01
    -13.361  0.0000E+00  0.0000E+00  0.1000E+01  0.1000E+01
    -13.257  0.0000E+00  0.0000E+00  0.1000E+01  0.1000E+01
    -13.152  0.0000E+00  0.0000E+00  0.1000E+01  0.1000E+01
    -13.048  0.0000E+00  0.0000E+00  0.1000E+01  0.1000E+01
    -12.943  0.0000E+00  0.0000E+00  0.1000E+01  0.1000E+01
    -12.839  0.0000E+00  0.0000E+00  0.1000E+01  0.1000E+01
    -12.734  0.0000E+00  0.0000E+00  0.1000E+01  0.1000E+01
    -12.630  0.0000E+00  0.0000E+00  0.1000E+01  0.1000E+01
    -12.525  0.0000E+00  0.0000E+00  0.1000E+01  0.1000E+01
    -12.421  0.0000E+00  0.0000E+00  0.1000E+01  0.1000E+01
    -12.316  0.0000E+00  0.0000E+00  0.1000E+01  0.1000E+01
    -12.212  0.0000E+00  0.0000E+00  0.1000E+01  0.1000E+01
    -12.107  0.0000E+00  0.0000E+00  0.1000E+01  0.1000E+01
    -12.003  0.0000E+00  0.0000E+00  0.1000E+01  0.1000E+01
    -11.898  0.0000E+00  0.0000E+00  0.1000E+01  0.1000E+01
    -11.794  0.0000E+00  0.0000E+00  0.1000E+01  0.1000E+01
    -11.689  0.0000E+00  0.0000E+00  0.1000E+01  0.1000E+01
    -11.585  0.0000E+00  0.0000E+00  0.1000E+01  0.1000E+01
    -11.480  0.0000E+00  0.0000E+00  0.1000E+01  0.1000E+01
    -11.376  0.0000E+00  0.0000E+00  0.1000E+01  0.1000E+01
    -11.271  0.0000E+00  0.0000E+00  0.1000E+01  0.1000E+01
    -11.167  0.3453E-13  0.0000E+00  0.1000E+01  0.1000E+01
    -11.062  0.9920E-11  0.0000E+00  0.1000E+01  0.1000E+01
    -10.958  0.1684E-08  0.0000E+00  0.1000E+01  0.1000E+01
    -10.853  0.1672E-06  0.0000E+00  0.1000E+01  0.1000E+01
    -10.749  0.9732E-05  0.0000E+00  0.1000E+01  0.1000E+01
    -10.644  0.3325E-03  0.0000E+00  0.1000E+01  0.1000E+01
    -10.540  0.6681E-02  0.0000E+00  0.1001E+01  0.1000E+01
    -10.435  0.7911E-01  0.0000E+00  0.1009E+01  0.1000E+01
    -10.330  0.5533E+00  0.0000E+00  0.1067E+01  0.1000E+01
    -10.226  0.2290E+01  0.0000E+00  0.1306E+01  0.1000E+01
    -10.121  0.5615E+01  0.0000E+00  0.1893E+01  0.1000E+01
    -10.017  0.8170E+01  0.0000E+00  0.2747E+01  0.1000E+01
     -9.912  0.7056E+01  0.0000E+00  0.3484E+01  0.1000E+01
     -9.808  0.3617E+01  0.0000E+00  0.3862E+01  0.1000E+01
     -9.703  0.1099E+01  0.0000E+00  0.3977E+01  0.1000E+01
     -9.599  0.1978E+00  0.0000E+00  0.3998E+01  0.1000E+01
     -9.494  0.2105E-01  0.0000E+00  0.4000E+01  0.1000E+01
     -9.390  0.1321E-02  0.0000E+00  0.4000E+01  0.1000E+01
     -9.285  0.4878E-04  0.0000E+00  0.4000E+01  0.1000E+01
     -9.181  0.1059E-05  0.0000E+00  0.4000E+01  0.1000E+01
     -9.076  0.1347E-07  0.0000E+00  0.4000E+01  0.1000E+01
     -8.972  0.1004E-09  0.0000E+00  0.4000E+01  0.1000E+01
     -8.867  0.4377E-12  0.0000E+00  0.4000E+01  0.1000E+01
     -8.763  0.0000E+00  0.0000E+00  0.4000E+01  0.1000E+01
     -8.658  0.0000E+00  0.0000E+00  0.4000E+01  0.1000E+01
     -8.554  0.0000E+00  0.0000E+00  0.4000E+01  0.1000E+01
     -8.449  0.0000E+00  0.0000E+00  0.4000E+01  0.1000E+01
     -8.345  0.0000E+00  0.0000E+00  0.4000E+01  0.1000E+01
     -8.240  0.0000E+00  0.0000E+00  0.4000E+01  0.1000E+01
     -8.136  0.0000E+00  0.3931E-13  0.4000E+01  0.1000E+01
     -8.031  0.0000E+00  0.1119E-10  0.4000E+01  0.1000E+01
     -7.927  0.0000E+00  0.1879E-08  0.4000E+01  0.1000E+01
     -7.822  0.0000E+00  0.1845E-06  0.4000E+01  0.1000E+01
     -7.718  0.0000E+00  0.1062E-04  0.4000E+01  0.1000E+01
     -7.613  0.0000E+00  0.3586E-03  0.4000E+01  0.1000E+01
     -7.509  0.0000E+00  0.7121E-02  0.4000E+01  0.1001E+01
     -7.404  0.0000E+00  0.8334E-01  0.4000E+01  0.1009E+01
     -7.300  0.0000E+00  0.5758E+00  0.4000E+01  0.1070E+01
     -7.195  0.0000E+00  0.2354E+01  0.4000E+01  0.1316E+01
     -7.091  0.0000E+00  0.5702E+01  0.4000E+01  0.1912E+01
     -6.986  0.0000E+00  0.8193E+01  0.4000E+01  0.2768E+01
     -6.882  0.0000E+00  0.6986E+01  0.4000E+01  0.3498E+01
     -6.777  0.0000E+00  0.3535E+01  0.4000E+01  0.3867E+01
     -6.673  0.0000E+00  0.1060E+01  0.4000E+01  0.3978E+01
     -6.568  0.0000E+00  0.1883E+00  0.4000E+01  0.3998E+01
     -6.464  0.0000E+00  0.1975E-01  0.4000E+01  0.4000E+01
     -6.359  0.0000E+00  0.1222E-02  0.4000E+01  0.4000E+01
     -6.255  0.0000E+00  0.4452E-04  0.4000E+01  0.4000E+01
     -6.150  0.0000E+00  0.9523E-06  0.4000E+01  0.4000E+01
     -6.046  0.0000E+00  0.1194E-07  0.4000E+01  0.4000E+01
     -5.941  0.0000E+00  0.8766E-10  0.4000E+01  0.4000E+01
     -5.837  0.0000E+00  0.3771E-12  0.4000E+01  0.4000E+01
     -5.732  0.0000E+00  0.0000E+00  0.4000E+01  0.4000E+01
     -5.628  0.0000E+00  0.0000E+00  0.4000E+01  0.4000E+01
     -5.523  0.0000E+00  0.0000E+00  0.4000E+01  0.4000E+01
     -5.419  0.0000E+00  0.0000E+00  0.4000E+01  0.4000E+01
     -5.314  0.0000E+00  0.0000E+00  0.4000E+01  0.4000E+01
     -5.210  0.0000E+00  0.0000E+00  0.4000E+01  0.4000E+01
     -5.105  0.0000E+00  0.0000E+00  0.4000E+01  0.4000E+01
     -5.001  0.0000E+00  0.0000E+00  0.4000E+01  0.4000E+01
     -4.896  0.0000E+00  0.0000E+00  0.4000E+01  0.4000E+01
     -4.791  0.0000E+00  0.0000E+00  0.4000E+01  0.4000E+01
     -4.687  0.0000E+00  0.0000E+00  0.4000E+01  0.4000E+01
     -4.582  0.0000E+00  0.0000E+00  0.4000E+01  0.4000E+01
     -4.478  0.0000E+00  0.0000E+00  0.4000E+01  0.4000E+01
     -4.373  0.0000E+00  0.0000E+00  0.4000E+01  0.4000E+01
     -4.269  0.0000E+00  0.0000E+00  0.4000E+01  0.4000E+01
     -4.164  0.0000E+00  0.0000E+00  0.4000E+01  0.4000E+01
     -4.060  0.0000E+00  0.0000E+00  0.4000E+01  0.4000E+01
     -3.955  0.0000E+00  0.0000E+00  0.4000E+01  0.4000E+01
     -3.851  0.0000E+00  0.0000E+00  0.4000E+01  0.4000E+01
     -3.746  0.0000E+00  0.0000E+00  0.4000E+01  0.4000E+01
     -3.642  0.0000E+00  0.0000E+00  0.4000E+01  0.4000E+01
     -3.537  0.0000E+00  0.0000E+00  0.4000E+01  0.4000E+01
     -3.433  0.0000E+00  0.0000E+00  0.4000E+01  0.4000E+01
     -3.328  0.0000E+00  0.0000E+00  0.4000E+01  0.4000E+01
     -3.224  0.0000E+00  0.0000E+00  0.4000E+01  0.4000E+01
     -3.119  0.0000E+00  0.0000E+00  0.4000E+01  0.4000E+01
     -3.015  0.0000E+00  0.0000E+00  0.4000E+01  0.4000E+01
     -2.910  0.0000E+00  0.0000E+00  0.4000E+01  0.4000E+01
     -2.806  0.0000E+00  0.0000E+00  0.4000E+01  0.4000E+01
     -2.701  0.0000E+00  0.0000E+00  0.4000E+01  0.4000E+01
     -2.597  0.0000E+00  0.0000E+00  0.4000E+01  0.4000E+01
     -2.492  0.0000E+00  0.0000E+00  0.4000E+01  0.4000E+01
     -2.388  0.0000E+00  0.0000E+00  0.4000E+01  0.4000E+01
     -2.283  0.0000E+00  0.0000E+00  0.4000E+01  0.4000E+01
     -2.179  0.0000E+00  0.0000E+00  0.4000E+01  0.4000E+01
     -2.074  0.0000E+00  0.0000E+00  0.4000E+01  0.4000E+01
     -1.970  0.0000E+00  0.0000E+00  0.4000E+01  0.4000E+01
     -1.865  0.0000E+00  0.0000E+00  0.4000E+01  0.4000E+01
     -1.761  0.5312E-15  0.0000E+00  0.4000E+01  0.4000E+01
     -1.656  0.1599E-12  0.0000E+00  0.4000E+01  0.4000E+01
     -1.552  0.3650E-10  0.0000E+00  0.4000E+01  0.4000E+01
     -1.447  0.4860E-08  0.4409E-13  0.4000E+01  0.4000E+01
     -1.343  0.3787E-06  0.1136E-10  0.4000E+01  0.4000E+01
     -1.238  0.1730E-04  0.1705E-08  0.4000E+01  0.4000E+01
     -1.134  0.4644E-03  0.1497E-06  0.4000E+01  0.4000E+01
     -1.029  0.7336E-02  0.7709E-05  0.4001E+01  0.4000E+01
     -0.925  0.6835E-01  0.2330E-03  0.4008E+01  0.4000E+01
     -0.820  0.3763E+00  0.4143E-02  0.4047E+01  0.4000E+01
     -0.716  0.1227E+01  0.4343E-01  0.4175E+01  0.4005E+01
     -0.611  0.2370E+01  0.2689E+00  0.4423E+01  0.4033E+01
     -0.507  0.2718E+01  0.9855E+00  0.4707E+01  0.4136E+01
     -0.402  0.1849E+01  0.2140E+01  0.4900E+01  0.4360E+01
     -0.298  0.7464E+00  0.2758E+01  0.4978E+01  0.4648E+01
     -0.193  0.1785E+00  0.2109E+01  0.4997E+01  0.4868E+01
     -0.089  0.2525E-01  0.9568E+00  0.5000E+01  0.4968E+01
      0.016  0.2109E-02  0.2573E+00  0.5000E+01  0.4995E+01
      0.120  0.1038E-03  0.4094E-01  0.5000E+01  0.5000E+01
      0.225  0.3003E-05  0.3847E-02  0.5000E+01  0.5000E+01
      0.329  0.5100E-07  0.2132E-03  0.5000E+01  0.5000E+01
      0.434  0.5074E-09  0.6947E-05  0.5000E+01  0.5000E+01
      0.538  0.2952E-11  0.1329E-06  0.5000E+01  0.5000E+01
      0.643  0.5099E-13  0.1491E-08  0.5000E+01  0.5000E+01
      0.748  0.1048E-10  0.9782E-11  0.5000E+01  0.5000E+01
      0.852  0.1586E-08  0.3984E-13  0.5000E+01  0.5000E+01
      0.957  0.1405E-06  0.5274E-12  0.5000E+01  0.5000E+01
      1.061  0.7293E-05  0.1079E-09  0.5000E+01  0.5000E+01
      1.166  0.2225E-03  0.1295E-07  0.5000E+01  0.5000E+01
      1.270  0.4000E-02  0.9142E-06  0.5000E+01  0.5000E+01
      1.375  0.4257E-01  0.3808E-04  0.5005E+01  0.5000E+01
      1.479  0.2706E+00  0.9404E-03  0.5033E+01  0.5000E+01
      1.584  0.1047E+01  0.1385E-01  0.5143E+01  0.5002E+01
      1.688  0.2565E+01  0.1225E+00  0.5411E+01  0.5014E+01
      1.793  0.4322E+01  0.6566E+00  0.5862E+01  0.5083E+01
      1.897  0.5606E+01  0.2157E+01  0.6448E+01  0.5308E+01
      2.002  0.5930E+01  0.4427E+01  0.7068E+01  0.5771E+01
      2.106  0.4836E+01  0.5940E+01  0.7573E+01  0.6392E+01
      2.211  0.2765E+01  0.5750E+01  0.7862E+01  0.6993E+01
      2.315  0.1035E+01  0.4576E+01  0.7971E+01  0.7471E+01
      2.420  0.2434E+00  0.3035E+01  0.7996E+01  0.7788E+01
      2.524  0.3507E-01  0.1468E+01  0.8000E+01  0.7942E+01
      2.629  0.3045E-02  0.4594E+00  0.8000E+01  0.7990E+01
      2.733  0.1577E-03  0.8775E-01  0.8000E+01  0.7999E+01
      2.838  0.4832E-05  0.1001E-01  0.8000E+01  0.8000E+01
      2.942  0.8726E-07  0.6759E-03  0.8000E+01  0.8000E+01
      3.047  0.9252E-09  0.2690E-04  0.8000E+01  0.8000E+01
      3.151  0.5745E-11  0.6292E-06  0.8000E+01  0.8000E+01
      3.256  0.2125E-13  0.8633E-08  0.8000E+01  0.8000E+01
      3.360  0.0000E+00  0.6934E-10  0.8000E+01  0.8000E+01
      3.465  0.0000E+00  0.3261E-12  0.8000E+01  0.8000E+01
      3.569  0.0000E+00  0.1062E-14  0.8000E+01  0.8000E+01
      3.674  0.0000E+00  0.0000E+00  0.8000E+01  0.8000E+01
      3.778  0.0000E+00  0.0000E+00  0.8000E+01  0.8000E+01
      3.883  0.0000E+00  0.0000E+00  0.8000E+01  0.8000E+01
      3.987  0.0000E+00  0.0000E+00  0.8000E+01  0.8000E+01
      4.092  0.0000E+00  0.0000E+00  0.8000E+01  0.8000E+01
      4.196  0.0000E+00  0.0000E+00  0.8000E+01  0.8000E+01
      4.301  0.0000E+00  0.0000E+00  0.8000E+01  0.8000E+01
