       N       E                     dE             d eps       ncg     rms          rms(c)
DAV:   1     0.402427182137E+02    0.40243E+02   -0.10024E+03    32   0.276E+02
DAV:   2     0.931229592890E+01   -0.30930E+02   -0.28940E+02    64   0.326E+01
DAV:   3    -0.731924871052E+00   -0.10044E+02   -0.72845E+01    40   0.478E+01
DAV:   4    -0.125606840878E+01   -0.52414E+00   -0.51455E+00    32   0.105E+01
DAV:   5    -0.126003154130E+01   -0.39631E-02   -0.39624E-02    48   0.966E-01    0.653E+00
DAV:   6     0.100641808065E+00    0.13607E+01   -0.31501E+00    40   0.880E+00    0.151E+00
DAV:   7    -0.117555473153E+01   -0.12762E+01   -0.77733E-01    32   0.387E+00    0.449E-01
DAV:   8    -0.155432683085E+01   -0.37877E+00   -0.99921E-02    64   0.142E+00    0.958E-01
DAV:   9    -0.153185570132E+01    0.22471E-01   -0.11383E-03    32   0.384E-01    0.545E-01
DAV:  10    -0.158122712872E+01   -0.49371E-01   -0.11976E-02    32   0.338E-01    0.508E-01
DAV:  11    -0.158169492539E+01   -0.46780E-03   -0.28083E-04    32   0.204E-01    0.402E-01
DAV:  12    -0.166141515072E+01   -0.79720E-01   -0.22138E-02    56   0.737E-01    0.134E-01
DAV:  13    -0.166787204939E+01   -0.64569E-02   -0.75760E-04    40   0.213E-01    0.893E-02
DAV:  14    -0.166866416300E+01   -0.79211E-03   -0.10605E-04    40   0.944E-02    0.708E-02
DAV:  15    -0.166872478415E+01   -0.60621E-04   -0.15441E-04    48   0.757E-02
   1 F= -.16687248E+01 E0= -.15915947E+01  d E =-.154260E+00  mag=     2.0002
