   1   1   0   0
  0.5120000E+03  0.8000000E-09  0.8000000E-09  0.8000000E-09  0.5000000E-15
  1.000000000000000E-004
  CAR 
 O atom in a box                         
      3.86302771    -25.84404691  301     -8.84329051      1.00000000
    -25.844  0.0000E+00  0.0000E+00
    -25.745  0.0000E+00  0.0000E+00
    -25.646  0.0000E+00  0.0000E+00
    -25.547  0.0000E+00  0.0000E+00
    -25.448  0.0000E+00  0.0000E+00
    -25.349  0.0000E+00  0.0000E+00
    -25.250  0.0000E+00  0.0000E+00
    -25.151  0.0000E+00  0.0000E+00
    -25.052  0.0000E+00  0.0000E+00
    -24.953  0.4485E-13  0.4441E-14
    -24.854  0.9373E-11  0.9326E-12
    -24.755  0.1198E-08  0.1195E-09
    -24.656  0.9457E-07  0.9484E-08
    -24.557  0.4618E-05  0.4667E-06
    -24.458  0.1396E-03  0.1429E-04
    -24.359  0.2619E-02  0.2736E-03
    -24.260  0.3050E-01  0.3294E-02
    -24.161  0.2210E+00  0.2518E-01
    -24.062  0.9973E+00  0.1239E+00
    -23.963  0.2807E+01  0.4019E+00
    -23.864  0.4931E+01  0.8902E+00
    -23.765  0.5411E+01  0.1426E+01
    -23.666  0.3708E+01  0.1793E+01
    -23.567  0.1587E+01  0.1950E+01
    -23.467  0.4236E+00  0.1992E+01
    -23.368  0.7049E-01  0.1999E+01
    -23.269  0.7299E-02  0.2000E+01
    -23.170  0.4697E-03  0.2000E+01
    -23.071  0.1876E-04  0.2000E+01
    -22.972  0.4642E-06  0.2000E+01
    -22.873  0.7107E-08  0.2000E+01
    -22.774  0.6725E-10  0.2000E+01
    -22.675  0.3947E-12  0.2000E+01
    -22.576  0.0000E+00  0.2000E+01
    -22.477  0.0000E+00  0.2000E+01
    -22.378  0.0000E+00  0.2000E+01
    -22.279  0.0000E+00  0.2000E+01
    -22.180  0.0000E+00  0.2000E+01
    -22.081  0.0000E+00  0.2000E+01
    -21.982  0.0000E+00  0.2000E+01
    -21.883  0.0000E+00  0.2000E+01
    -21.784  0.0000E+00  0.2000E+01
    -21.685  0.0000E+00  0.2000E+01
    -21.586  0.0000E+00  0.2000E+01
    -21.487  0.0000E+00  0.2000E+01
    -21.388  0.0000E+00  0.2000E+01
    -21.289  0.0000E+00  0.2000E+01
    -21.190  0.0000E+00  0.2000E+01
    -21.091  0.0000E+00  0.2000E+01
    -20.992  0.0000E+00  0.2000E+01
    -20.893  0.0000E+00  0.2000E+01
    -20.794  0.0000E+00  0.2000E+01
    -20.695  0.0000E+00  0.2000E+01
    -20.596  0.0000E+00  0.2000E+01
    -20.497  0.0000E+00  0.2000E+01
    -20.398  0.0000E+00  0.2000E+01
    -20.299  0.0000E+00  0.2000E+01
    -20.200  0.0000E+00  0.2000E+01
    -20.101  0.0000E+00  0.2000E+01
    -20.002  0.0000E+00  0.2000E+01
    -19.903  0.0000E+00  0.2000E+01
    -19.804  0.0000E+00  0.2000E+01
    -19.705  0.0000E+00  0.2000E+01
    -19.606  0.0000E+00  0.2000E+01
    -19.507  0.0000E+00  0.2000E+01
    -19.408  0.0000E+00  0.2000E+01
    -19.308  0.0000E+00  0.2000E+01
    -19.209  0.0000E+00  0.2000E+01
    -19.110  0.0000E+00  0.2000E+01
    -19.011  0.0000E+00  0.2000E+01
    -18.912  0.0000E+00  0.2000E+01
    -18.813  0.0000E+00  0.2000E+01
    -18.714  0.0000E+00  0.2000E+01
    -18.615  0.0000E+00  0.2000E+01
    -18.516  0.0000E+00  0.2000E+01
    -18.417  0.0000E+00  0.2000E+01
    -18.318  0.0000E+00  0.2000E+01
    -18.219  0.0000E+00  0.2000E+01
    -18.120  0.0000E+00  0.2000E+01
    -18.021  0.0000E+00  0.2000E+01
    -17.922  0.0000E+00  0.2000E+01
    -17.823  0.0000E+00  0.2000E+01
    -17.724  0.0000E+00  0.2000E+01
    -17.625  0.0000E+00  0.2000E+01
    -17.526  0.0000E+00  0.2000E+01
    -17.427  0.0000E+00  0.2000E+01
    -17.328  0.0000E+00  0.2000E+01
    -17.229  0.0000E+00  0.2000E+01
    -17.130  0.0000E+00  0.2000E+01
    -17.031  0.0000E+00  0.2000E+01
    -16.932  0.0000E+00  0.2000E+01
    -16.833  0.0000E+00  0.2000E+01
    -16.734  0.0000E+00  0.2000E+01
    -16.635  0.0000E+00  0.2000E+01
    -16.536  0.0000E+00  0.2000E+01
    -16.437  0.0000E+00  0.2000E+01
    -16.338  0.0000E+00  0.2000E+01
    -16.239  0.0000E+00  0.2000E+01
    -16.140  0.0000E+00  0.2000E+01
    -16.041  0.0000E+00  0.2000E+01
    -15.942  0.0000E+00  0.2000E+01
    -15.843  0.0000E+00  0.2000E+01
    -15.744  0.0000E+00  0.2000E+01
    -15.645  0.0000E+00  0.2000E+01
    -15.546  0.0000E+00  0.2000E+01
    -15.447  0.0000E+00  0.2000E+01
    -15.348  0.0000E+00  0.2000E+01
    -15.249  0.0000E+00  0.2000E+01
    -15.150  0.0000E+00  0.2000E+01
    -15.050  0.0000E+00  0.2000E+01
    -14.951  0.0000E+00  0.2000E+01
    -14.852  0.0000E+00  0.2000E+01
    -14.753  0.0000E+00  0.2000E+01
    -14.654  0.0000E+00  0.2000E+01
    -14.555  0.0000E+00  0.2000E+01
    -14.456  0.0000E+00  0.2000E+01
    -14.357  0.0000E+00  0.2000E+01
    -14.258  0.0000E+00  0.2000E+01
    -14.159  0.0000E+00  0.2000E+01
    -14.060  0.0000E+00  0.2000E+01
    -13.961  0.0000E+00  0.2000E+01
    -13.862  0.0000E+00  0.2000E+01
    -13.763  0.0000E+00  0.2000E+01
    -13.664  0.0000E+00  0.2000E+01
    -13.565  0.0000E+00  0.2000E+01
    -13.466  0.0000E+00  0.2000E+01
    -13.367  0.0000E+00  0.2000E+01
    -13.268  0.0000E+00  0.2000E+01
    -13.169  0.0000E+00  0.2000E+01
    -13.070  0.0000E+00  0.2000E+01
    -12.971  0.0000E+00  0.2000E+01
    -12.872  0.0000E+00  0.2000E+01
    -12.773  0.0000E+00  0.2000E+01
    -12.674  0.0000E+00  0.2000E+01
    -12.575  0.0000E+00  0.2000E+01
    -12.476  0.0000E+00  0.2000E+01
    -12.377  0.0000E+00  0.2000E+01
    -12.278  0.0000E+00  0.2000E+01
    -12.179  0.0000E+00  0.2000E+01
    -12.080  0.0000E+00  0.2000E+01
    -11.981  0.0000E+00  0.2000E+01
    -11.882  0.0000E+00  0.2000E+01
    -11.783  0.0000E+00  0.2000E+01
    -11.684  0.0000E+00  0.2000E+01
    -11.585  0.0000E+00  0.2000E+01
    -11.486  0.0000E+00  0.2000E+01
    -11.387  0.0000E+00  0.2000E+01
    -11.288  0.0000E+00  0.2000E+01
    -11.189  0.0000E+00  0.2000E+01
    -11.090  0.0000E+00  0.2000E+01
    -10.991  0.0000E+00  0.2000E+01
    -10.891  0.0000E+00  0.2000E+01
    -10.792  0.0000E+00  0.2000E+01
    -10.693  0.0000E+00  0.2000E+01
    -10.594  0.0000E+00  0.2000E+01
    -10.495  0.0000E+00  0.2000E+01
    -10.396  0.0000E+00  0.2000E+01
    -10.297  0.0000E+00  0.2000E+01
    -10.198  0.0000E+00  0.2000E+01
    -10.099  0.0000E+00  0.2000E+01
    -10.000  0.2792E-12  0.2000E+01
     -9.901  0.5386E-10  0.2000E+01
     -9.802  0.6470E-08  0.2000E+01
     -9.703  0.4802E-06  0.2000E+01
     -9.604  0.2205E-04  0.2000E+01
     -9.505  0.6269E-03  0.2000E+01
     -9.406  0.1106E-01  0.2001E+01
     -9.307  0.1212E+00  0.2013E+01
     -9.208  0.8261E+00  0.2095E+01
     -9.109  0.3508E+01  0.2442E+01
     -9.010  0.9294E+01  0.3363E+01
     -8.911  0.1537E+02  0.4885E+01
     -8.812  0.1588E+02  0.6457E+01
     -8.713  0.1024E+02  0.7471E+01
     -8.614  0.4125E+01  0.7880E+01
     -8.515  0.1037E+01  0.7982E+01
     -8.416  0.1623E+00  0.7998E+01
     -8.317  0.1581E-01  0.8000E+01
     -8.218  0.9571E-03  0.8000E+01
     -8.119  0.3594E-04  0.8000E+01
     -8.020  0.8363E-06  0.8000E+01
     -7.921  0.1204E-07  0.8000E+01
     -7.822  0.1071E-09  0.8000E+01
     -7.723  0.5920E-12  0.8000E+01
     -7.624  0.0000E+00  0.8000E+01
     -7.525  0.0000E+00  0.8000E+01
     -7.426  0.0000E+00  0.8000E+01
     -7.327  0.0000E+00  0.8000E+01
     -7.228  0.0000E+00  0.8000E+01
     -7.129  0.0000E+00  0.8000E+01
     -7.030  0.0000E+00  0.8000E+01
     -6.931  0.0000E+00  0.8000E+01
     -6.832  0.0000E+00  0.8000E+01
     -6.732  0.0000E+00  0.8000E+01
     -6.633  0.0000E+00  0.8000E+01
     -6.534  0.0000E+00  0.8000E+01
     -6.435  0.0000E+00  0.8000E+01
     -6.336  0.0000E+00  0.8000E+01
     -6.237  0.0000E+00  0.8000E+01
     -6.138  0.0000E+00  0.8000E+01
     -6.039  0.0000E+00  0.8000E+01
     -5.940  0.0000E+00  0.8000E+01
     -5.841  0.0000E+00  0.8000E+01
     -5.742  0.0000E+00  0.8000E+01
     -5.643  0.0000E+00  0.8000E+01
     -5.544  0.0000E+00  0.8000E+01
     -5.445  0.0000E+00  0.8000E+01
     -5.346  0.0000E+00  0.8000E+01
     -5.247  0.0000E+00  0.8000E+01
     -5.148  0.0000E+00  0.8000E+01
     -5.049  0.0000E+00  0.8000E+01
     -4.950  0.0000E+00  0.8000E+01
     -4.851  0.0000E+00  0.8000E+01
     -4.752  0.0000E+00  0.8000E+01
     -4.653  0.0000E+00  0.8000E+01
     -4.554  0.0000E+00  0.8000E+01
     -4.455  0.0000E+00  0.8000E+01
     -4.356  0.0000E+00  0.8000E+01
     -4.257  0.0000E+00  0.8000E+01
     -4.158  0.0000E+00  0.8000E+01
     -4.059  0.0000E+00  0.8000E+01
     -3.960  0.0000E+00  0.8000E+01
     -3.861  0.0000E+00  0.8000E+01
     -3.762  0.0000E+00  0.8000E+01
     -3.663  0.0000E+00  0.8000E+01
     -3.564  0.0000E+00  0.8000E+01
     -3.465  0.0000E+00  0.8000E+01
     -3.366  0.0000E+00  0.8000E+01
     -3.267  0.0000E+00  0.8000E+01
     -3.168  0.0000E+00  0.8000E+01
     -3.069  0.0000E+00  0.8000E+01
     -2.970  0.0000E+00  0.8000E+01
     -2.871  0.0000E+00  0.8000E+01
     -2.772  0.0000E+00  0.8000E+01
     -2.673  0.0000E+00  0.8000E+01
     -2.574  0.0000E+00  0.8000E+01
     -2.474  0.0000E+00  0.8000E+01
     -2.375  0.0000E+00  0.8000E+01
     -2.276  0.0000E+00  0.8000E+01
     -2.177  0.0000E+00  0.8000E+01
     -2.078  0.0000E+00  0.8000E+01
     -1.979  0.0000E+00  0.8000E+01
     -1.880  0.0000E+00  0.8000E+01
     -1.781  0.0000E+00  0.8000E+01
     -1.682  0.0000E+00  0.8000E+01
     -1.583  0.3139E-13  0.8000E+01
     -1.484  0.6680E-11  0.8000E+01
     -1.385  0.8815E-09  0.8000E+01
     -1.286  0.7185E-07  0.8000E+01
     -1.187  0.3622E-05  0.8000E+01
     -1.088  0.1130E-03  0.8000E+01
     -0.989  0.2188E-02  0.8000E+01
     -0.890  0.2630E-01  0.8003E+01
     -0.791  0.1967E+00  0.8022E+01
     -0.692  0.9157E+00  0.8113E+01
     -0.593  0.2659E+01  0.8376E+01
     -0.494  0.4820E+01  0.8854E+01
     -0.395  0.5456E+01  0.9394E+01
     -0.296  0.3858E+01  0.9776E+01
     -0.197  0.1703E+01  0.9945E+01
     -0.098  0.4692E+00  0.9991E+01
      0.001  0.8056E-01  0.9999E+01
      0.100  0.8609E-02  0.1000E+02
      0.199  0.5718E-03  0.1000E+02
      0.298  0.2357E-04  0.1000E+02
      0.397  0.6020E-06  0.1000E+02
      0.496  0.9517E-08  0.1000E+02
      0.595  0.9297E-10  0.1000E+02
      0.694  0.5639E-12  0.1000E+02
      0.793  0.1183E-11  0.1000E+02
      0.892  0.2018E-09  0.1000E+02
      0.991  0.2132E-07  0.1000E+02
      1.090  0.1393E-05  0.1000E+02
      1.189  0.5628E-04  0.1000E+02
      1.288  0.1409E-02  0.1000E+02
      1.387  0.2190E-01  0.1000E+02
      1.486  0.2115E+00  0.1002E+02
      1.585  0.1271E+01  0.1015E+02
      1.685  0.4760E+01  0.1062E+02
      1.784  0.1112E+02  0.1172E+02
      1.883  0.1623E+02  0.1333E+02
      1.982  0.1479E+02  0.1479E+02
      2.081  0.8420E+01  0.1563E+02
      2.180  0.2992E+01  0.1592E+02
      2.279  0.6629E+00  0.1599E+02
      2.378  0.9150E-01  0.1600E+02
      2.477  0.7856E-02  0.1600E+02
      2.576  0.4189E-03  0.1600E+02
      2.675  0.1385E-04  0.1600E+02
      2.774  0.2837E-06  0.1600E+02
      2.873  0.3593E-08  0.1600E+02
      2.972  0.2812E-10  0.1600E+02
      3.071  0.1345E-12  0.1600E+02
      3.170  0.0000E+00  0.1600E+02
      3.269  0.0000E+00  0.1600E+02
      3.368  0.0000E+00  0.1600E+02
      3.467  0.0000E+00  0.1600E+02
      3.566  0.0000E+00  0.1600E+02
      3.665  0.0000E+00  0.1600E+02
      3.764  0.0000E+00  0.1600E+02
      3.863  0.0000E+00  0.1600E+02
