   2   2   0   0
  0.2560000E+03  0.8000000E-09  0.8000000E-09  0.8000000E-09  0.2000000E-16
  1.000000000000000E-004
  CAR 
 CO dimer in a box                       
      3.89794950    -31.11354276  301     -7.77072441      1.00000000
    -31.114  0.0000E+00  0.0000E+00
    -30.997  0.0000E+00  0.0000E+00
    -30.880  0.0000E+00  0.0000E+00
    -30.763  0.0000E+00  0.0000E+00
    -30.647  0.0000E+00  0.0000E+00
    -30.530  0.0000E+00  0.0000E+00
    -30.413  0.0000E+00  0.0000E+00
    -30.297  0.9513E-15  0.1110E-15
    -30.180  0.4005E-12  0.4685E-13
    -30.063  0.1607E-09  0.1880E-10
    -29.946  0.3296E-07  0.3866E-08
    -29.830  0.3473E-05  0.4092E-06
    -29.713  0.1885E-03  0.2241E-04
    -29.596  0.5290E-02  0.6398E-03
    -29.480  0.7701E-01  0.9627E-02
    -29.363  0.5840E+00  0.7778E-01
    -29.246  0.2315E+01  0.3480E+00
    -29.130  0.4814E+01  0.9098E+00
    -29.013  0.5258E+01  0.1524E+01
    -28.896  0.3018E+01  0.1876E+01
    -28.779  0.9090E+00  0.1982E+01
    -28.663  0.1433E+00  0.1999E+01
    -28.546  0.1178E-01  0.2000E+01
    -28.429  0.5027E-03  0.2000E+01
    -28.313  0.1110E-04  0.2000E+01
    -28.196  0.1265E-06  0.2000E+01
    -28.079  0.7402E-09  0.2000E+01
    -27.963  0.2222E-11  0.2000E+01
    -27.846  0.3805E-14  0.2000E+01
    -27.729  0.0000E+00  0.2000E+01
    -27.612  0.0000E+00  0.2000E+01
    -27.496  0.0000E+00  0.2000E+01
    -27.379  0.0000E+00  0.2000E+01
    -27.262  0.0000E+00  0.2000E+01
    -27.146  0.0000E+00  0.2000E+01
    -27.029  0.0000E+00  0.2000E+01
    -26.912  0.0000E+00  0.2000E+01
    -26.795  0.0000E+00  0.2000E+01
    -26.679  0.0000E+00  0.2000E+01
    -26.562  0.0000E+00  0.2000E+01
    -26.445  0.0000E+00  0.2000E+01
    -26.329  0.0000E+00  0.2000E+01
    -26.212  0.0000E+00  0.2000E+01
    -26.095  0.0000E+00  0.2000E+01
    -25.979  0.0000E+00  0.2000E+01
    -25.862  0.0000E+00  0.2000E+01
    -25.745  0.0000E+00  0.2000E+01
    -25.628  0.0000E+00  0.2000E+01
    -25.512  0.0000E+00  0.2000E+01
    -25.395  0.0000E+00  0.2000E+01
    -25.278  0.0000E+00  0.2000E+01
    -25.162  0.0000E+00  0.2000E+01
    -25.045  0.0000E+00  0.2000E+01
    -24.928  0.0000E+00  0.2000E+01
    -24.811  0.0000E+00  0.2000E+01
    -24.695  0.0000E+00  0.2000E+01
    -24.578  0.0000E+00  0.2000E+01
    -24.461  0.0000E+00  0.2000E+01
    -24.345  0.0000E+00  0.2000E+01
    -24.228  0.0000E+00  0.2000E+01
    -24.111  0.0000E+00  0.2000E+01
    -23.995  0.0000E+00  0.2000E+01
    -23.878  0.0000E+00  0.2000E+01
    -23.761  0.0000E+00  0.2000E+01
    -23.644  0.0000E+00  0.2000E+01
    -23.528  0.0000E+00  0.2000E+01
    -23.411  0.0000E+00  0.2000E+01
    -23.294  0.0000E+00  0.2000E+01
    -23.178  0.0000E+00  0.2000E+01
    -23.061  0.0000E+00  0.2000E+01
    -22.944  0.0000E+00  0.2000E+01
    -22.827  0.0000E+00  0.2000E+01
    -22.711  0.0000E+00  0.2000E+01
    -22.594  0.0000E+00  0.2000E+01
    -22.477  0.0000E+00  0.2000E+01
    -22.361  0.0000E+00  0.2000E+01
    -22.244  0.0000E+00  0.2000E+01
    -22.127  0.0000E+00  0.2000E+01
    -22.011  0.0000E+00  0.2000E+01
    -21.894  0.0000E+00  0.2000E+01
    -21.777  0.0000E+00  0.2000E+01
    -21.660  0.0000E+00  0.2000E+01
    -21.544  0.0000E+00  0.2000E+01
    -21.427  0.0000E+00  0.2000E+01
    -21.310  0.0000E+00  0.2000E+01
    -21.194  0.0000E+00  0.2000E+01
    -21.077  0.0000E+00  0.2000E+01
    -20.960  0.0000E+00  0.2000E+01
    -20.844  0.0000E+00  0.2000E+01
    -20.727  0.0000E+00  0.2000E+01
    -20.610  0.0000E+00  0.2000E+01
    -20.493  0.0000E+00  0.2000E+01
    -20.377  0.0000E+00  0.2000E+01
    -20.260  0.0000E+00  0.2000E+01
    -20.143  0.0000E+00  0.2000E+01
    -20.027  0.0000E+00  0.2000E+01
    -19.910  0.0000E+00  0.2000E+01
    -19.793  0.0000E+00  0.2000E+01
    -19.676  0.0000E+00  0.2000E+01
    -19.560  0.0000E+00  0.2000E+01
    -19.443  0.0000E+00  0.2000E+01
    -19.326  0.0000E+00  0.2000E+01
    -19.210  0.0000E+00  0.2000E+01
    -19.093  0.0000E+00  0.2000E+01
    -18.976  0.0000E+00  0.2000E+01
    -18.860  0.0000E+00  0.2000E+01
    -18.743  0.0000E+00  0.2000E+01
    -18.626  0.0000E+00  0.2000E+01
    -18.509  0.0000E+00  0.2000E+01
    -18.393  0.0000E+00  0.2000E+01
    -18.276  0.0000E+00  0.2000E+01
    -18.159  0.0000E+00  0.2000E+01
    -18.043  0.0000E+00  0.2000E+01
    -17.926  0.0000E+00  0.2000E+01
    -17.809  0.0000E+00  0.2000E+01
    -17.692  0.0000E+00  0.2000E+01
    -17.576  0.0000E+00  0.2000E+01
    -17.459  0.0000E+00  0.2000E+01
    -17.342  0.0000E+00  0.2000E+01
    -17.226  0.0000E+00  0.2000E+01
    -17.109  0.0000E+00  0.2000E+01
    -16.992  0.0000E+00  0.2000E+01
    -16.876  0.0000E+00  0.2000E+01
    -16.759  0.0000E+00  0.2000E+01
    -16.642  0.0000E+00  0.2000E+01
    -16.525  0.0000E+00  0.2000E+01
    -16.409  0.0000E+00  0.2000E+01
    -16.292  0.0000E+00  0.2000E+01
    -16.175  0.0000E+00  0.2000E+01
    -16.059  0.0000E+00  0.2000E+01
    -15.942  0.0000E+00  0.2000E+01
    -15.825  0.0000E+00  0.2000E+01
    -15.708  0.0000E+00  0.2000E+01
    -15.592  0.0000E+00  0.2000E+01
    -15.475  0.0000E+00  0.2000E+01
    -15.358  0.0000E+00  0.2000E+01
    -15.242  0.0000E+00  0.2000E+01
    -15.125  0.0000E+00  0.2000E+01
    -15.008  0.0000E+00  0.2000E+01
    -14.892  0.2378E-13  0.2000E+01
    -14.775  0.1278E-10  0.2000E+01
    -14.658  0.3508E-08  0.2000E+01
    -14.541  0.4942E-06  0.2000E+01
    -14.425  0.3581E-04  0.2000E+01
    -14.308  0.1340E-02  0.2000E+01
    -14.191  0.2595E-01  0.2003E+01
    -14.075  0.2614E+00  0.2034E+01
    -13.958  0.1375E+01  0.2194E+01
    -13.841  0.3787E+01  0.2636E+01
    -13.725  0.5476E+01  0.3275E+01
    -13.608  0.4162E+01  0.3761E+01
    -13.491  0.1661E+01  0.3955E+01
    -13.374  0.3474E+00  0.3995E+01
    -13.258  0.3795E-01  0.4000E+01
    -13.141  0.2157E-02  0.4000E+01
    -13.024  0.6354E-04  0.4000E+01
    -12.908  0.9665E-06  0.4000E+01
    -12.791  0.7566E-08  0.4000E+01
    -12.674  0.3045E-10  0.4000E+01
    -12.557  0.2706E-10  0.4000E+01
    -12.441  0.7367E-08  0.4000E+01
    -12.324  0.1031E-05  0.4000E+01
    -12.207  0.7429E-04  0.4000E+01
    -12.091  0.2762E-02  0.4000E+01
    -11.974  0.5318E-01  0.4007E+01
    -11.857  0.5325E+00  0.4069E+01
    -11.741  0.2783E+01  0.4394E+01
    -11.624  0.7622E+01  0.5283E+01
    -11.507  0.1096E+02  0.6562E+01
    -11.390  0.8278E+01  0.7528E+01
    -11.274  0.3284E+01  0.7911E+01
    -11.157  0.6828E+00  0.7991E+01
    -11.040  0.7414E-01  0.7999E+01
    -10.924  0.4189E-02  0.8000E+01
    -10.807  0.1226E-03  0.8000E+01
    -10.690  0.1854E-05  0.8000E+01
    -10.573  0.1442E-07  0.8000E+01
    -10.457  0.5759E-10  0.8000E+01
    -10.340  0.1180E-12  0.8000E+01
    -10.223  0.0000E+00  0.8000E+01
    -10.107  0.0000E+00  0.8000E+01
     -9.990  0.0000E+00  0.8000E+01
     -9.873  0.9513E-15  0.8000E+01
     -9.757  0.4119E-12  0.8000E+01
     -9.640  0.1645E-09  0.8000E+01
     -9.523  0.3365E-07  0.8000E+01
     -9.406  0.3536E-05  0.8000E+01
     -9.290  0.1914E-03  0.8000E+01
     -9.173  0.5356E-02  0.8001E+01
     -9.056  0.7776E-01  0.8010E+01
     -8.940  0.5881E+00  0.8078E+01
     -8.823  0.2326E+01  0.8350E+01
     -8.706  0.4822E+01  0.8913E+01
     -8.589  0.5253E+01  0.9526E+01
     -8.473  0.3007E+01  0.9877E+01
     -8.356  0.9033E+00  0.9982E+01
     -8.239  0.1420E+00  0.9999E+01
     -8.123  0.1164E-01  0.1000E+02
     -8.006  0.4955E-03  0.1000E+02
     -7.889  0.1091E-04  0.1000E+02
     -7.773  0.1240E-06  0.1000E+02
     -7.656  0.7236E-09  0.1000E+02
     -7.539  0.2165E-11  0.1000E+02
     -7.422  0.3805E-14  0.1000E+02
     -7.306  0.0000E+00  0.1000E+02
     -7.189  0.0000E+00  0.1000E+02
     -7.072  0.0000E+00  0.1000E+02
     -6.956  0.0000E+00  0.1000E+02
     -6.839  0.0000E+00  0.1000E+02
     -6.722  0.0000E+00  0.1000E+02
     -6.605  0.0000E+00  0.1000E+02
     -6.489  0.0000E+00  0.1000E+02
     -6.372  0.0000E+00  0.1000E+02
     -6.255  0.0000E+00  0.1000E+02
     -6.139  0.0000E+00  0.1000E+02
     -6.022  0.0000E+00  0.1000E+02
     -5.905  0.0000E+00  0.1000E+02
     -5.789  0.0000E+00  0.1000E+02
     -5.672  0.0000E+00  0.1000E+02
     -5.555  0.0000E+00  0.1000E+02
     -5.438  0.0000E+00  0.1000E+02
     -5.322  0.0000E+00  0.1000E+02
     -5.205  0.0000E+00  0.1000E+02
     -5.088  0.0000E+00  0.1000E+02
     -4.972  0.0000E+00  0.1000E+02
     -4.855  0.0000E+00  0.1000E+02
     -4.738  0.0000E+00  0.1000E+02
     -4.622  0.0000E+00  0.1000E+02
     -4.505  0.0000E+00  0.1000E+02
     -4.388  0.0000E+00  0.1000E+02
     -4.271  0.0000E+00  0.1000E+02
     -4.155  0.0000E+00  0.1000E+02
     -4.038  0.0000E+00  0.1000E+02
     -3.921  0.0000E+00  0.1000E+02
     -3.805  0.0000E+00  0.1000E+02
     -3.688  0.0000E+00  0.1000E+02
     -3.571  0.0000E+00  0.1000E+02
     -3.454  0.0000E+00  0.1000E+02
     -3.338  0.0000E+00  0.1000E+02
     -3.221  0.0000E+00  0.1000E+02
     -3.104  0.0000E+00  0.1000E+02
     -2.988  0.0000E+00  0.1000E+02
     -2.871  0.0000E+00  0.1000E+02
     -2.754  0.3805E-14  0.1000E+02
     -2.638  0.2361E-11  0.1000E+02
     -2.521  0.8427E-09  0.1000E+02
     -2.404  0.1541E-06  0.1000E+02
     -2.287  0.1448E-04  0.1000E+02
     -2.171  0.7017E-03  0.1000E+02
     -2.054  0.1758E-01  0.1000E+02
     -1.937  0.2287E+00  0.1003E+02
     -1.821  0.1550E+01  0.1021E+02
     -1.704  0.5500E+01  0.1085E+02
     -1.587  0.1023E+02  0.1205E+02
     -1.470  0.1001E+02  0.1321E+02
     -1.354  0.5141E+01  0.1381E+02
     -1.237  0.1385E+01  0.1398E+02
     -1.120  0.1952E+00  0.1400E+02
     -1.004  0.1434E-01  0.1400E+02
     -0.887  0.5778E-03  0.1400E+02
     -0.770  0.1202E-02  0.1400E+02
     -0.654  0.2363E-01  0.1400E+02
     -0.537  0.2436E+00  0.1403E+02
     -0.420  0.1311E+01  0.1418E+02
     -0.303  0.3694E+01  0.1462E+02
     -0.187  0.5465E+01  0.1525E+02
     -0.070  0.4249E+01  0.1575E+02
      0.047  0.1735E+01  0.1595E+02
      0.163  0.3713E+00  0.1599E+02
      0.280  0.4151E-01  0.1600E+02
      0.397  0.2415E-02  0.1600E+02
      0.514  0.7281E-04  0.1600E+02
      0.630  0.1134E-05  0.1600E+02
      0.747  0.9116E-08  0.1600E+02
      0.864  0.7316E-08  0.1600E+02
      0.980  0.9349E-06  0.1600E+02
      1.097  0.6185E-04  0.1600E+02
      1.214  0.2117E-02  0.1600E+02
      1.330  0.3774E-01  0.1600E+02
      1.447  0.3543E+00  0.1605E+02
      1.564  0.1789E+01  0.1625E+02
      1.681  0.5052E+01  0.1684E+02
      1.797  0.8496E+01  0.1784E+02
      1.914  0.9065E+01  0.1889E+02
      2.031  0.6203E+01  0.1962E+02
      2.147  0.2581E+01  0.1992E+02
      2.264  0.6105E+00  0.1999E+02
      2.381  0.7838E-01  0.2000E+02
      2.497  0.5327E-02  0.2000E+02
      2.614  0.1891E-03  0.2000E+02
      2.731  0.3477E-05  0.2000E+02
      2.848  0.3297E-07  0.2000E+02
      2.964  0.1607E-09  0.2000E+02
      3.081  0.4015E-12  0.2000E+02
      3.198  0.0000E+00  0.2000E+02
      3.314  0.0000E+00  0.2000E+02
      3.431  0.0000E+00  0.2000E+02
      3.548  0.0000E+00  0.2000E+02
      3.665  0.0000E+00  0.2000E+02
      3.781  0.0000E+00  0.2000E+02
      3.898  0.0000E+00  0.2000E+02
