    2    2    1    1
  0.2560000E+03  0.8000000E-09  0.8000000E-09  0.8000000E-09  0.2000000E-16
  1.000000000000000E-004
  CAR 
 CO dimer in a box                       
     10      1     10
 
  0.0000000E+00  0.0000000E+00  0.0000000E+00  0.1000000E+01
    1      -29.113543   1.000000
    2      -13.774283   1.000000
    3      -11.557967   1.000000
    4      -11.557967   1.000000
    5       -8.690655   1.000000
    6       -1.591262   0.000000
    7       -1.591262   0.000000
    8       -0.232372   0.000000
    9        1.731214   0.000000
   10        1.897949   0.000000
