       N       E                     dE             d eps       ncg     rms          rms(c)
DAV:   1     0.898591631352E+02    0.89859E+02   -0.29972E+03    20   0.706E+02
DAV:   2     0.171952863054E+02   -0.72664E+02   -0.71796E+02    36   0.131E+02
DAV:   3    -0.132608679504E+02   -0.30456E+02   -0.30443E+02    32   0.849E+01
DAV:   4    -0.157334903762E+02   -0.24726E+01   -0.24725E+01    32   0.235E+01
DAV:   5    -0.157410858486E+02   -0.75955E-02   -0.75952E-02    30   0.146E+00    0.297E+01
DAV:   6    -0.150969672315E+02    0.64412E+00   -0.32762E+00    20   0.114E+01    0.200E+01
DAV:   7    -0.150422417611E+02    0.54725E-01   -0.26706E+00    30   0.945E+00    0.268E+00
DAV:   8    -0.149204739737E+02    0.12177E+00   -0.83645E-01    24   0.498E+00    0.230E+00
DAV:   9    -0.149229293029E+02   -0.24553E-02   -0.31691E-02    28   0.152E+00    0.365E-01
DAV:  10    -0.149226485549E+02    0.28075E-03   -0.77598E-03    24   0.660E-01    0.434E-01
DAV:  11    -0.149242273676E+02   -0.15788E-02   -0.58770E-04    22   0.193E-01    0.853E-02
DAV:  12    -0.149247337483E+02   -0.50638E-03   -0.19753E-04    24   0.929E-02    0.563E-02
DAV:  13    -0.149260901230E+02   -0.13564E-02   -0.18843E-04    20   0.709E-02    0.490E-02
DAV:  14    -0.149266107152E+02   -0.52059E-03   -0.59627E-05    24   0.370E-02    0.305E-02
DAV:  15    -0.149269612391E+02   -0.35052E-03   -0.44433E-05    24   0.303E-02    0.947E-03
DAV:  16    -0.149269844630E+02   -0.23224E-04   -0.85051E-07    22   0.612E-03    0.555E-03
DAV:  17    -0.149270339202E+02   -0.49457E-04   -0.27853E-06    20   0.680E-03    0.556E-03
DAV:  18    -0.149270476193E+02   -0.13699E-04   -0.85286E-07    24   0.354E-03    0.175E-03
DAV:  19    -0.149270500633E+02   -0.24440E-05   -0.12990E-07    20   0.140E-03    0.582E-04
DAV:  20    -0.149270508200E+02   -0.75667E-06   -0.55261E-08    22   0.898E-04
   1 F= -.14927051E+02 E0= -.14927051E+02  d E =-.218017E-10
       N       E                     dE             d eps       ncg     rms          rms(c)
DAV:   1    -0.149238474030E+02    0.32027E-02   -0.18456E+00    20   0.144E+01    0.246E+00
DAV:   2    -0.149224417676E+02    0.14056E-02   -0.20472E-02    20   0.124E+00    0.493E-01
DAV:   3    -0.149216892949E+02    0.75247E-03   -0.25572E-03    32   0.436E-01    0.363E-01
DAV:   4    -0.149216169870E+02    0.72308E-04   -0.99937E-04    24   0.285E-01    0.106E-01
DAV:   5    -0.149216330681E+02   -0.16081E-04   -0.95533E-05    20   0.885E-02    0.839E-02
DAV:   6    -0.149216541792E+02   -0.21111E-04   -0.48213E-06    24   0.194E-02    0.294E-02
DAV:   7    -0.149216768651E+02   -0.22686E-04   -0.14677E-06    24   0.837E-03    0.136E-02
DAV:   8    -0.149217007235E+02   -0.23858E-04   -0.10098E-06    20   0.578E-03    0.340E-03
DAV:   9    -0.149217110736E+02   -0.10350E-04   -0.21250E-07    24   0.228E-03    0.155E-03
DAV:  10    -0.149217336983E+02   -0.22625E-04   -0.17242E-06    22   0.553E-03    0.219E-03
DAV:  11    -0.149217350885E+02   -0.13902E-05   -0.51890E-08    24   0.127E-03    0.111E-03
DAV:  12    -0.149217367074E+02   -0.16188E-05   -0.41562E-08    22   0.848E-04    0.228E-04
DAV:  13    -0.149217373696E+02   -0.66222E-06   -0.19878E-08    24   0.510E-04
   2 F= -.14921737E+02 E0= -.14921737E+02  d E =-.732029E-10
       N       E                     dE             d eps       ncg     rms          rms(c)
DAV:   1    -0.148980401556E+02    0.23697E-01   -0.71975E+00    20   0.287E+01    0.461E+00
DAV:   2    -0.148915277730E+02    0.65124E-02   -0.85793E-02    20   0.246E+00    0.102E+00
DAV:   3    -0.148889331078E+02    0.25947E-02   -0.12878E-02    32   0.941E-01    0.814E-01
DAV:   4    -0.148887923925E+02    0.14072E-03   -0.38503E-03    20   0.549E-01    0.209E-01
DAV:   5    -0.148889026457E+02   -0.11025E-03   -0.39297E-04    20   0.174E-01    0.184E-01
DAV:   6    -0.148889848123E+02   -0.82167E-04   -0.35621E-05    20   0.496E-02    0.551E-02
DAV:   7    -0.148890242191E+02   -0.39407E-04   -0.63007E-06    20   0.194E-02    0.358E-02
DAV:   8    -0.148890709184E+02   -0.46699E-04   -0.29063E-06    20   0.104E-02    0.492E-03
DAV:   9    -0.148891263923E+02   -0.55474E-04   -0.61281E-06    20   0.124E-02    0.170E-02
DAV:  10    -0.148891514899E+02   -0.25098E-04   -0.21758E-06    22   0.792E-03    0.421E-03
DAV:  11    -0.148891571957E+02   -0.57058E-05   -0.32650E-07    24   0.298E-03    0.175E-03
DAV:  12    -0.148891594903E+02   -0.22946E-05   -0.72920E-08    20   0.130E-03    0.766E-04
DAV:  13    -0.148891610266E+02   -0.15364E-05   -0.73244E-08    22   0.118E-03    0.467E-04
DAV:  14    -0.148891613748E+02   -0.34813E-06   -0.11282E-08    24   0.472E-04
   3 F= -.14889161E+02 E0= -.14889161E+02  d E =-.854169E-11
       N       E                     dE             d eps       ncg     rms          rms(c)
DAV:   1    -0.148845613784E+02    0.45996E-02   -0.63130E+00    20   0.315E+01    0.184E+00
DAV:   2    -0.148893517169E+02   -0.47903E-02   -0.54164E-02    22   0.198E+00    0.838E-01
DAV:   3    -0.148891165643E+02    0.23515E-03   -0.25393E-03    20   0.401E-01    0.447E-01
DAV:   4    -0.148891103710E+02    0.61934E-05   -0.11141E-04    22   0.109E-01    0.304E-01
DAV:   5    -0.148891145968E+02   -0.42258E-05   -0.82041E-05    24   0.824E-02    0.105E-01
DAV:   6    -0.148891159925E+02   -0.13957E-05   -0.24945E-06    22   0.164E-02    0.666E-02
DAV:   7    -0.148891174684E+02   -0.14759E-05   -0.37919E-06    22   0.122E-02    0.104E-02
DAV:   8    -0.148891182018E+02   -0.73336E-06   -0.16646E-07    22   0.384E-03
   4 F= -.14889118E+02 E0= -.14889118E+02  d E =-.872913E-11
       N       E                     dE             d eps       ncg     rms          rms(c)
DAV:   1    -0.149188586145E+02   -0.29741E-01   -0.22738E+01    20   0.574E+01    0.486E+00
DAV:   2    -0.149262773898E+02   -0.74188E-02   -0.19120E-01    20   0.429E+00    0.117E+00
DAV:   3    -0.149218408174E+02    0.44366E-02   -0.94938E-03    40   0.824E-01    0.618E-01
DAV:   4    -0.149214103853E+02    0.43043E-03   -0.36959E-03    24   0.495E-01    0.285E-01
DAV:   5    -0.149215194988E+02   -0.10911E-03   -0.51515E-04    22   0.174E-01    0.105E-01
DAV:   6    -0.149215464851E+02   -0.26986E-04   -0.12136E-04    24   0.799E-02    0.352E-02
DAV:   7    -0.149216003813E+02   -0.53896E-04   -0.21372E-05    24   0.404E-02    0.178E-02
DAV:   8    -0.149216746580E+02   -0.74277E-04   -0.45281E-06    20   0.143E-02    0.117E-02
DAV:   9    -0.149216898356E+02   -0.15178E-04   -0.71357E-07    24   0.509E-03    0.703E-03
DAV:  10    -0.149217503982E+02   -0.60563E-04   -0.51503E-06    20   0.123E-02    0.928E-03
DAV:  11    -0.149217591876E+02   -0.87894E-05   -0.62241E-07    24   0.502E-03    0.461E-03
DAV:  12    -0.149217630948E+02   -0.39072E-05   -0.15683E-07    20   0.233E-03    0.322E-03
DAV:  13    -0.149217649415E+02   -0.18467E-05   -0.54760E-08    22   0.984E-04    0.183E-03
DAV:  14    -0.149217652556E+02   -0.31413E-06   -0.74806E-09    24   0.547E-04
   5 F= -.14921765E+02 E0= -.14921765E+02  d E =-.731415E-10
